12
2I_1M_Im
C     -1.485856    -0.715717    -0.169616
N     -0.198938    -0.084602    -0.019964
C      1.011770    -0.703820    -0.176054
C      1.945607     0.276783     0.060463
N      1.335752     1.467750     0.354244
C      0.043189     1.226059     0.299925
I     -1.379715     2.717662     0.670335
H     -2.032185    -0.213139    -0.971591
H     -1.347610    -1.769052    -0.427950
H     -2.025632    -0.641288     0.777656
H      1.109457    -1.749425    -0.432340
H      3.024160     0.188789     0.034891
