16
ascorbic_acid
O     -1.673143     2.051502     0.158123
C     -1.140967     1.220447     1.076539
C      0.144597     0.550559     0.610722
O      0.800894    -0.134653     1.685187
C     -0.175959    -0.427798    -0.519072
O     -0.534144    -1.709525     0.016398
C      1.023219    -0.492797    -1.457446
O      1.650493    -1.690907    -1.411881
O      1.435696     0.400311    -2.178073
O     -1.678200     1.075172     2.163602
H     -2.466637     2.422296     0.601622
H      0.817967     1.353586     0.290055
H      0.115979    -0.708030     2.085495
H     -1.021691    -0.099583    -1.133022
H      0.305296    -2.214099     0.054696
H      2.396600    -1.596480    -2.042945
