22
B_bis_catalyst
C     -0.940091    -0.193481    -0.083516
C      0.453888     0.339572    -0.048278
O      0.814368     1.452478    -0.390131
O      1.336521    -0.561934     0.420008
O      2.148857    -0.777022     0.033512
C      1.266287     0.328787     0.168518
C     -0.099437    -0.144497     0.667656
C     -0.839057    -0.986505    -0.331163
O     -1.540141    -0.025330    -1.103975
C     -1.705048     1.072752    -0.309719
O     -2.407093     2.028830    -0.588656
O     -0.967454     0.966372     0.835952
H     -1.612335     0.577509    -0.470551
H     -1.260211    -0.460690     0.926554
H     -0.987937    -1.062229    -0.744655
H      2.195797    -0.091225     0.390569
H      3.011171    -0.421855    -0.248776
H      1.698034     1.040170     0.881025
H      1.186515     0.841139    -0.796644
H      0.016863    -0.687468     1.611911
H     -1.577427    -1.638984     0.148029
H     -0.192068    -1.596390    -0.967669
