17
benzimidazole_NH
N      3.315387     0.269882    -0.155593
C      1.975126     0.263084    -0.128079
N      1.174288     1.280280    -0.311456
C     -0.095361     0.768856    -0.184854
C     -1.337357     1.412376    -0.284409
C     -2.502694     0.653742    -0.113261
C     -2.432831    -0.716957     0.150655
C     -1.202715    -1.377635     0.253355
C     -0.058401    -0.596496     0.080298
N      1.280539    -0.891124     0.107107
H      3.833246    -0.361181     0.444810
H      3.719886     1.203552    -0.159024
H     -1.383282     2.475543    -0.491355
H     -3.472185     1.140477    -0.188810
H     -3.353791    -1.282750     0.277693
H     -1.149642    -2.441407     0.456230
H      1.689787    -1.800241     0.246694
