20
bipyridine
C      3.526219     0.081593     0.128744
C      2.876767    -0.957856    -0.518579
C      1.481075    -0.970655    -0.570679
C      0.750530     0.061050     0.028117
C     -0.742152     0.130024     0.022264
C     -1.560018    -0.830121    -0.582623
C     -2.948944    -0.688627    -0.541472
C     -3.504816     0.406514     0.101132
C     -2.644671     1.318702     0.678442
N     -1.300082     1.202537     0.651152
N      1.400049     1.077763     0.661743
C      2.749366     1.069436     0.699612
H      4.607541     0.122177     0.187584
H      3.448662    -1.756795    -0.982073
H      0.996534    -1.793275    -1.082028
H     -1.149424    -1.694099    -1.090480
H     -3.588440    -1.431572    -1.009736
H     -4.578212     0.546674     0.151507
H     -3.019104     2.196945     1.196019
H      3.199119     1.909587     1.220446
