24
BMIM_cation
C      3.198849     0.171733     0.739795
C      1.979497     0.356685    -0.150459
C      1.082756    -0.883238    -0.132871
C     -0.105609    -0.778614    -1.091035
N     -1.091716     0.210837    -0.703312
C     -1.181374     1.475928    -1.219025
C     -2.261458     2.044075    -0.590507
N     -2.837468     1.156109     0.277020
C     -2.126169     0.048913     0.190208
C     -2.393139    -1.203886     0.940424
H      2.902488    -0.008188     1.778135
H      3.805810    -0.674908     0.403485
H      3.825104     1.069041     0.715707
H      1.422046     1.233554     0.196142
H      2.310807     0.563260    -1.174661
H      0.732060    -1.064562     0.889727
H      1.679144    -1.756928    -0.423643
H     -0.620393    -1.743693    -1.155532
H      0.235216    -0.533490    -2.103988
H     -0.491530     1.857469    -1.958180
H     -2.657405     3.042855    -0.718609
H     -2.586727    -2.034447     0.255087
H     -3.273965    -1.084788     1.579453
H     -1.546825    -1.463716     1.582331
