12
chlorobenzene
C      1.185750     0.690218     0.017816
C     -0.001971     1.419423     0.093729
C     -1.229782     0.756201     0.078680
C     -1.272487    -0.635750    -0.012190
C     -0.085781    -1.366597    -0.088189
C      1.138828    -0.700273    -0.072862
Cl     2.602589    -1.600349    -0.166518
H      2.140023     1.209521     0.029770
H      0.029685     2.503771     0.164556
H     -2.154752     1.324971     0.137857
H     -2.229692    -1.150972    -0.023800
H     -0.122410    -2.450165    -0.158849
