21
choline_cation
C     -1.634812    -0.521714    -1.137580
N     -0.536335    -0.257342    -0.107819
C     -0.284738    -1.534701     0.675645
C     -1.027458     0.833392     0.842659
C      0.731092     0.195931    -0.878706
C      1.935422     0.565197     0.004727
O      1.670514     1.741033     0.760318
H     -1.284987    -1.298747    -1.823779
H     -2.534013    -0.856714    -0.611731
H     -1.834010     0.408307    -1.678349
H      0.101728    -2.292392    -0.012022
H      0.437143    -1.330726     1.470112
H     -1.231996    -1.864426     1.113412
H     -0.357063     0.888928     1.703146
H     -1.067689     1.780324     0.297240
H     -2.027458     0.556399     1.191656
H      0.998414    -0.627790    -1.550220
H      0.429196     1.064052    -1.476435
H      2.795524     0.771857    -0.640963
H      2.210569    -0.242983     0.686901
H      2.510958     2.022117     1.171787
