53
Cp_TBA_OH_cation
C      0.737523    -3.060227    -3.406141
C     -0.189754    -2.620027    -2.284344
C      0.446264    -1.518095    -1.429329
C     -0.495631    -1.112610    -0.297536
N     -0.064922     0.121875     0.533028
C      0.193230     1.374403    -0.362166
C     -1.001437     1.781084    -1.231278
C     -0.643903     2.994052    -2.095585
C     -1.813174     3.420751    -2.968880
C      1.189069    -0.171849     1.411732
C      2.553333    -0.115214     0.709520
C      3.354490     1.164396     0.985403
C      3.866990     1.258579     2.415887
C     -1.254632     0.503756     1.498953
C     -1.428913    -0.321877     2.784856
C     -1.984109    -1.742989     2.689518
C     -3.308170    -1.843021     1.949775
H      0.973368    -2.223333    -4.071204
H      0.263713    -3.845613    -4.003254
H      1.676202    -3.456911    -3.006365
H     -1.130029    -2.258957    -2.717248
H     -0.431836    -3.485735    -1.656758
H      1.379940    -1.911082    -1.016386
H      0.686954    -0.671572    -2.078181
H     -0.582697    -1.950564     0.393354
H     -1.493343    -0.897986    -0.693959
H      0.465063     2.191049     0.316794
H      1.053744     1.165334    -1.000413
H     -1.301667     0.959802    -1.889685
H     -1.865495     2.040144    -0.611430
H      0.213627     2.755436    -2.735557
H     -0.348271     3.833223    -1.455120
H     -2.113133     2.613456    -3.644621
H     -1.535508     4.287303    -3.577052
H     -2.678501     3.697481    -2.358199
H      1.036866    -1.173986     1.827295
H      1.161254     0.553811     2.229881
H      2.479745    -0.239923    -0.370783
H      3.151175    -0.965471     1.063242
H      2.760507     2.052917     0.750491
H      4.220860     1.178835     0.312855
H      4.476254     0.386006     2.672185
H      4.491090     2.150587     2.531861
H      3.048707     1.330426     3.137551
H     -2.173795     0.499472     0.905714
H     -1.060235     1.539724     1.803716
H     -2.132847     0.243680     3.412289
H     -0.503679    -0.345501     3.369389
H     -1.250763    -2.424231     2.252146
H     -2.141796    -2.108125     3.712733
H     -3.200430    -1.602586     0.889249
H     -4.051742    -1.166912     2.383556
H     -3.699557    -2.863183     2.018502
