44
Cyclophosphonium_cation
C      3.630897    -1.020411    -1.805930
C      3.301147    -0.872239    -3.141098
N      2.080015    -0.495789    -3.569784
C      1.149249    -0.258785    -2.616342
C      1.372519    -0.367023    -1.244704
P      0.050579    -0.014899    -0.096867
C     -1.444713    -0.791563    -0.721710
C     -2.675568    -0.124755    -0.753271
C     -3.818249    -0.754057    -1.253945
C     -3.746402    -2.059046    -1.733860
C     -2.531187    -2.736355    -1.715283
C     -1.390640    -2.107085    -1.214277
C      0.457908    -0.658794     1.532068
C     -0.135379    -1.816753     2.049260
C      0.202658    -2.287632     3.320732
C      1.136700    -1.605194     4.095726
C      1.732217    -0.448861     3.601574
C      1.394053     0.020128     2.331359
C     -0.186788     1.760563     0.059474
C     -0.926662     2.267021     1.142251
C     -1.129357     3.638963     1.298399
C     -0.593277     4.529389     0.373494
C      0.145460     4.046573    -0.703459
C      0.348421     2.672639    -0.858661
C      2.651152    -0.764366    -0.849266
H      4.628014    -1.330163    -1.513796
H      4.030727    -1.059614    -3.923365
H      0.177091     0.038992    -3.003166
H     -2.766013     0.896882    -0.396594
H     -4.765193    -0.220358    -1.272170
H     -4.635803    -2.545329    -2.125431
H     -2.468539    -3.753431    -2.093444
H     -0.448899    -2.653064    -1.208985
H     -0.875649    -2.367651     1.477047
H     -0.269034    -3.187920     3.706608
H      1.396083    -1.972321     5.085055
H      2.457539     0.091063     4.204570
H      1.866492     0.928657     1.961935
H     -1.353480     1.584530     1.875227
H     -1.704641     4.010236     2.142432
H     -0.748808     5.598324     0.491825
H      0.568056     4.740145    -1.426309
H      0.936040     2.335212    -1.707104
H      2.901263    -0.885860     0.199786
