17
cyclohexene_oxide
C     -0.692431     1.009769     0.721886
C     -1.715982     0.073905     0.069250
C     -0.895733    -1.123225    -0.424109
C      0.435327    -0.527749    -0.780841
C      0.561572     0.788819    -0.074227
C      1.510895    -0.330224     0.248554
O      2.834677    -0.181785    -0.279448
H     -1.025864     2.051036     0.678888
H     -0.534096     0.740770     1.772154
H     -2.170433     0.579904    -0.791871
H     -2.519059    -0.216560     0.752326
H     -0.783561    -1.871150     0.368651
H     -1.373743    -1.601246    -1.284496
H      0.693944    -0.588225    -1.828065
H      0.895803     1.646387    -0.639977
H      1.405145    -0.842197     1.199529
H      3.373539     0.391770     0.291795
