18
cyclohexane
C      0.330467    -1.376449    -0.294026
C      1.456688    -0.345627    -0.191969
C      0.965662     1.068917     0.123219
C     -0.438260     1.314553    -0.412492
C     -1.456688     0.345627     0.191967
C     -0.857868    -1.007020     0.583302
H     -0.002500    -1.448099    -1.337242
H      0.712385    -2.366536    -0.020562
H      2.169780    -0.650197     0.583746
H      2.016114    -0.342985    -1.135386
H      1.665642     1.802304    -0.292818
H      0.966144     1.219452     1.210251
H     -0.747665     2.346277    -0.210679
H     -0.430957     1.199203    -1.503795
H     -2.270014     0.197194    -0.528773
H     -1.915882     0.795988     1.080401
H     -0.532688    -0.970558     1.630789
H     -1.630361    -1.782045     0.524066
