20
DABCO
C      1.507482     0.075153    -0.477972
C      0.764153     1.383748    -0.089153
N     -0.641648     1.129582     0.335634
C     -1.304328     0.418170    -0.793990
C     -0.561014    -0.890418    -1.182830
N      0.641652    -1.129590    -0.335640
C      0.168532    -1.147633     1.077573
C     -0.574816     0.160963     1.466400
H      2.400640    -0.045364     0.147646
H      1.864605     0.143553    -1.513073
H      1.301353     1.889748     0.722652
H      0.765467     2.078688    -0.938096
H     -1.357583     1.087682    -1.661495
H     -2.341360     0.189272    -0.518650
H     -1.242148    -1.745847    -1.093655
H     -0.258484    -0.847428    -2.236532
H      1.026371    -1.300431     1.744220
H     -0.493347    -2.009853     1.226381
H     -1.592617    -0.074705     1.801351
H     -0.072910     0.634710     2.319228
