35
DBU
C     -3.166808     1.103166     0.777630
N     -2.054856     0.516842     0.033709
C     -2.296920    -0.843580    -0.447272
C     -2.047730    -1.884088     0.638653
C     -0.683287    -1.831048     1.326733
C      0.526541    -1.838723     0.383941
N      1.157623    -0.521853     0.222548
C      2.554482    -0.658222    -0.201606
C      3.306418     0.665891    -0.050057
C      2.489169     1.880433    -0.480738
C      1.307899     1.475143    -1.352241
C      0.417147     0.396178    -0.686411
C     -0.769719     1.063852     0.091046
N     -0.492634     2.129592     0.780346
H     -3.283129     2.162530     0.525529
H     -2.998250     1.006254     1.855242
H     -4.120711     0.618659     0.542619
H     -1.718871    -1.074476    -1.344864
H     -3.338522    -0.936048    -0.782228
H     -2.820558    -1.791633     1.412454
H     -2.181594    -2.879090     0.195591
H     -0.616975    -2.715970     1.974383
H     -0.636774    -0.977062     2.014070
H      1.255108    -2.509396     0.859724
H      0.290548    -2.300599    -0.582693
H      3.081452    -1.398960     0.412935
H      2.611445    -1.015643    -1.238371
H      3.617932     0.802579     0.993139
H      4.228416     0.614472    -0.641878
H      2.131007     2.407207     0.411164
H      3.129632     2.590262    -1.016716
H      0.721474     2.362449    -1.618642
H      1.703276     1.073878    -2.295457
H      0.014055    -0.167765    -1.532104
H     -1.316284     2.474769     1.262783
