35
DBU_no_N
C      2.450233    -2.357929     0.537026
N      1.625499    -1.196429     0.177969
C      2.484597     0.004513     0.118219
C      1.968786     1.131174    -0.782651
C      1.212252     2.259203    -0.072973
C     -0.001074     1.840803     0.753223
N     -0.777900     0.864130     0.001679
C     -2.103147     1.365291    -0.368565
C     -2.790627     0.423512    -1.355642
C     -2.854745    -0.997641    -0.814381
C     -1.471770    -1.464044    -0.369440
C     -0.830918    -0.471960     0.625188
C      0.520268    -1.064449     1.151261
H      3.246235    -2.513279    -0.200172
H      2.908347    -2.247071     1.526637
H      1.850737    -3.275514     0.530562
H      3.442604    -0.293414    -0.331089
H      2.737673     0.377039     1.119150
H      2.836367     1.594121    -1.272750
H      1.367760     0.719330    -1.603357
H      0.887932     2.975532    -0.839505
H      1.906919     2.804482     0.578109
H      0.320376     1.476274     1.733662
H     -0.587876     2.740462     0.982922
H     -2.012474     2.346158    -0.851654
H     -2.730110     1.497504     0.522609
H     -2.242733     0.426429    -2.306678
H     -3.802786     0.784861    -1.569694
H     -3.545402    -1.035619     0.036925
H     -3.250393    -1.673777    -1.580233
H     -1.565791    -2.454397     0.092090
H     -0.829695    -1.583251    -1.251844
H     -1.487889    -0.410492     1.505599
H      0.259562    -2.063463     1.531387
H      0.859181    -0.528090     2.046414
