15
diethyl_ether
C      2.291044     0.776783     0.173637
C      1.235101    -0.299534     0.019165
O     -0.047584     0.322269     0.031465
C     -1.097653    -0.631356    -0.110052
C     -2.421456     0.106454    -0.087401
H      3.294638     0.342402     0.169416
H      2.147510     1.326224     1.109916
H      2.218595     1.507452    -0.638755
H      1.380083    -0.830146    -0.928253
H      1.307943    -1.014068     0.846392
H     -1.058086    -1.350622     0.715333
H     -0.985946    -1.166702    -1.059313
H     -3.258125    -0.589693    -0.193560
H     -2.467489     0.840882    -0.898329
H     -2.538575     0.659654     0.850341
