24
dimethylaminophenol
O      4.474789    -0.194264    -0.310773
C      3.208297    -0.147297    -0.247134
C      2.520212     1.020764     0.103322
C      1.127315     1.082397     0.176070
C      0.354595    -0.047708    -0.105467
N     -1.162243     0.050551    -0.017637
C     -1.527747     0.428083     1.408610
C     -1.624742     1.098594    -1.016639
C     -1.836775    -1.267958    -0.355189
C      1.006655    -1.227127    -0.457622
C      2.403142    -1.260913    -0.522816
H      3.106235     1.913573     0.326721
H      0.694408     2.034622     0.456648
H     -1.102393    -0.314071     2.092142
H     -2.619621     0.429791     1.489974
H     -1.153674     1.430200     1.636475
H     -2.719379     1.119394    -1.004332
H     -1.266592     0.821002    -2.013436
H     -1.248130     2.083153    -0.725268
H     -1.591535    -1.548580    -1.384684
H     -1.521634    -2.031800     0.363131
H     -2.920092    -1.127065    -0.272910
H      0.499707    -2.152633    -0.693223
H      2.899202    -2.192709    -0.800271
