16
dioxane
C      0.315398    -1.146022     0.360033
C      1.360802    -0.138936    -0.107430
C      0.850903     1.286197     0.063334
O     -0.391418     1.464207    -0.617126
C     -1.413805     0.610633    -0.103114
C     -1.035908    -0.853876    -0.283577
H      0.637104    -2.164497     0.116559
H      0.218517    -1.090097     1.451244
H      2.296853    -0.277928     0.443425
H      1.570152    -0.320088    -1.168913
H      1.569621     1.992558    -0.364050
H      0.726126     1.540786     1.122415
H     -1.591590     0.849412     0.952071
H     -2.336217     0.827442    -0.651116
H     -0.967821    -1.077169    -1.355441
H     -1.808716    -1.502622     0.141685
