22
DMAP
C     -2.304619     1.344114    -0.873890
N     -1.787066     0.133627    -0.238548
C     -2.636249    -0.444807     0.801211
C     -0.400400    -0.044728    -0.154496
C      0.499702     0.698295    -0.936701
C      1.890068     0.514969    -0.860635
C      2.441471    -0.401444     0.027171
C      1.570845    -1.207021     0.751818
C      0.181098    -1.020353     0.672624
N      3.814717    -0.663777     0.018883
H     -1.951478     2.243050    -0.356546
H     -2.020099     1.390607    -1.930488
H     -3.400267     1.363303    -0.858614
H     -3.693442    -0.218180     0.622242
H     -2.562913    -1.537524     0.811348
H     -2.376225    -0.048150     1.788881
H      0.145207     1.437656    -1.647595
H      2.531897     1.101449    -1.512038
H      1.957488    -1.997096     1.389405
H     -0.433217    -1.682546     1.274130
H      4.153679    -1.090615     0.874965
H      4.379805     0.129172    -0.267244
