12
DMF
C      1.279295    -0.258784    -0.427388
N     -0.008569     0.110701     0.126814
C     -1.118057    -0.798940    -0.071685
C     -0.198184     1.364612     0.669661
O      0.652864     2.237523     0.779581
H      1.561934    -1.243306    -0.043807
H      1.193029    -0.301073    -1.517063
H      2.054623     0.463957    -0.159747
H     -2.022271    -0.431002     0.420976
H     -0.855648    -1.776805     0.341705
H     -1.309663    -0.892288    -1.144539
H     -1.229353     1.525406     1.025492
