20
EDMA_cation
C      2.133149     0.010436    -0.002543
C      0.867916     0.786742    -0.329487
N     -0.428372     0.023323    -0.010159
C     -0.533805    -1.263080    -0.821192
C     -0.535783    -0.298878     1.475901
C     -1.606498     0.926352    -0.390219
H      2.206662    -0.228572     1.061723
H      2.208070    -0.916539    -0.577254
H      3.008085     0.618462    -0.257012
H      0.840102     1.720868     0.243451
H      0.841515     1.032059    -1.397543
H     -0.398206    -1.018018    -1.878466
H     -1.524331    -1.696953    -0.653118
H      0.235205    -1.961473    -0.481946
H      0.233294    -1.029697     1.737891
H     -0.401584     0.627471     2.041709
H     -1.526328    -0.723338     1.666403
H     -2.537654     0.396239    -0.168512
H     -1.540002     1.149117    -1.459323
H     -1.541436     1.845480     0.199695
