41
EDPP_cation
C     -2.584117    -0.692719     1.835719
C     -1.180437    -0.146015     2.026052
P     -0.197664     0.012139     0.501252
C     -0.797056     1.336390    -0.526850
C     -1.783557     2.232639    -0.100517
C     -2.218972     3.268153    -0.931863
C     -1.666084     3.428005    -2.199573
C     -0.673482     2.555559    -2.634669
C     -0.240882     1.522037    -1.802337
C      1.486429     0.409131     0.947317
C      1.772121     1.159474     2.094911
C      3.089649     1.478440     2.431472
C      4.139587     1.058664     1.618929
C      3.871631     0.325942     0.466163
C      2.554155     0.008734     0.131107
C     -0.294912    -1.577047    -0.302964
C     -1.127793    -1.789821    -1.408573
C     -1.208498    -3.047202    -2.010463
C     -0.465479    -4.111910    -1.506750
C      0.352735    -3.921396    -0.396528
C      0.431868    -2.664134     0.204193
H     -3.127134    -0.685977     2.785698
H     -3.148904    -0.101394     1.110681
H     -2.556100    -1.724098     1.472606
H     -0.638281    -0.813324     2.706023
H     -1.237703     0.829011     2.520116
H     -2.225839     2.144838     0.886587
H     -2.987899     3.953837    -0.585420
H     -2.003186     4.235232    -2.843929
H     -0.231056     2.680109    -3.619329
H      0.540966     0.852714    -2.154386
H      0.970117     1.513762     2.735645
H      3.294774     2.060987     3.325765
H      5.164217     1.309263     1.879392
H      4.686759     0.004201    -0.176477
H      2.363655    -0.555192    -0.779143
H     -1.731804    -0.978512    -1.807279
H     -1.857056    -3.195037    -2.870007
H     -0.529898    -5.090486    -1.974604
H      0.927372    -4.751634     0.005370
H      1.067760    -2.533363     1.077307
