18
EMIM_cation
C      2.172997    -0.256950    -0.076373
C      1.019933    -0.128533     0.903518
N     -0.261891    -0.402254     0.284633
C     -0.852530    -1.634976     0.215233
C     -2.042948    -1.424997    -0.435827
N     -2.191213    -0.102727    -0.757748
C     -1.107391     0.503317    -0.313603
C     -0.822473     1.955085    -0.433374
H      2.066268     0.444756    -0.909981
H      2.223546    -1.267296    -0.496012
H      3.122713    -0.048413     0.425731
H      0.986421     0.876966     1.334879
H      1.144810    -0.834837     1.732160
H     -0.394750    -2.527597     0.617042
H     -2.801344    -2.153979    -0.689198
H      0.130914     2.126560    -0.941645
H     -1.606588     2.451502    -1.013826
H     -0.786473     2.424373     0.554390
