13
epoxybutane
C      1.474577     0.401126     0.261951
C      0.611740    -0.717397    -0.300520
C     -0.819764    -0.366622    -0.564921
C     -1.665791     0.407102     0.412971
O     -1.108717     1.020766    -0.761015
H      2.502316     0.049977     0.399856
H      1.501461     1.261128    -0.414889
H      1.105609     0.743608     1.233343
H      0.639036    -1.570815     0.386742
H      1.059565    -1.058591    -1.241426
H     -1.313947    -1.087476    -1.204345
H     -2.734108     0.229447     0.419866
H     -1.251977     0.687747     1.372387
