14
ethyl_acetate
C     -2.124272     0.916587     0.099241
C     -1.181641    -0.270691     0.069249
O      0.159896     0.224916    -0.015415
C      1.111266    -0.747895    -0.050008
C      2.472807    -0.129560    -0.138148
O      0.899117    -1.951568    -0.014998
H     -2.002204     1.528547    -0.800598
H     -1.903826     1.562285     0.955734
H     -3.164984     0.587007     0.163866
H     -1.300798    -0.860746     0.984881
H     -1.401002    -0.895113    -0.804092
H      3.228590    -0.919760    -0.165292
H      2.553276     0.460755    -1.054344
H      2.653775     0.495237     0.740054
