18
EtPyridinium_cation
C      2.382013    -0.337835    -0.565831
C      1.605745     0.420141     0.492270
N      0.154314     0.213071     0.280197
C     -0.470922    -0.823321     0.887246
C     -1.833069    -1.032431     0.706044
C     -2.553288    -0.165998    -0.105689
C     -1.899144     0.892828    -0.721576
C     -0.535758     1.065839    -0.513605
H      3.457472    -0.195577    -0.423758
H      2.120174     0.008762    -1.570697
H      2.168876    -1.410560    -0.518225
H      1.807458     1.495525     0.445093
H      1.856286     0.072685     1.500173
H      0.128805    -1.479364     1.511845
H     -2.331332    -1.867117     1.194797
H     -3.621529    -0.315867    -0.258359
H     -2.449629     1.579718    -1.361102
H      0.013529     1.879500    -0.978823
