14
glycerol_carbonate
O      2.163442    -0.735965     0.018771
C      1.262772     0.357588     0.132370
C     -0.084134    -0.122760     0.674077
C     -0.826287    -1.012692    -0.280327
O     -1.559834    -0.092215    -1.072316
C     -1.730578     1.029877    -0.313649
O     -2.455720     1.962581    -0.611958
O     -0.969728     0.977284     0.820487
H      3.013425    -0.375231    -0.292379
H      1.694259     1.101319     0.811209
H      1.155215     0.834195    -0.848283
H      0.060129    -0.630029     1.634195
H     -1.543040    -1.661331     0.235501
H     -0.179921    -1.632622    -0.907698
