28
HEBIM_cation
C      3.490977    -0.698324    -0.861018
C      2.027514    -0.605885    -0.457165
C      1.878656    -0.233719     1.018931
C      0.421720    -0.181950     1.484185
N     -0.338114     0.911375     0.908755
C     -0.245773     2.215633     1.319702
C     -1.148951     2.902572     0.548507
N     -1.795597     2.053117    -0.306458
C     -1.295675     0.852841    -0.079434
C     -1.722414    -0.389585    -0.785235
C     -3.008323    -0.945977    -0.187190
O     -3.291393    -2.217589    -0.764927
H      4.000403     0.258881    -0.710755
H      3.575823    -0.966007    -1.918886
H      4.012626    -1.461558    -0.274786
H      1.534147     0.140300    -1.089446
H      1.542721    -1.570005    -0.648276
H      2.366613     0.731122     1.204474
H      2.406620    -0.977747     1.628235
H     -0.094153    -1.124617     1.279023
H      0.392277    -0.039930     2.571698
H      0.433609     2.536151     2.096758
H     -1.371171     3.961444     0.566005
H     -0.939412    -1.154383    -0.777314
H     -1.887591    -0.165200    -1.846578
H     -2.916832    -1.080531     0.896052
H     -3.851679    -0.274683    -0.383171
H     -4.176628    -2.475747    -0.454102
