48
HETBAB_cation
C     -3.311998    -1.654384    -2.312742
C     -2.328741    -2.524263    -1.544666
C     -1.810745    -1.872942    -0.257331
C     -1.008272    -0.595793    -0.531886
N     -0.234587    -0.054572     0.704324
C      0.527625     1.239871     0.293383
C     -0.372872     2.423510    -0.081372
C      0.430333     3.700272    -0.360698
C      1.335459     3.597130    -1.578821
C      0.780782    -1.094910     1.263305
C      1.611248    -1.901744     0.254558
C      2.698452    -1.138124    -0.498686
C      3.713976    -2.087010    -1.121706
C     -1.268658     0.249219     1.837671
C     -0.688196     0.936620     3.085021
O     -1.738708     1.121109     4.025163
H     -3.714004    -2.207328    -3.167793
H     -2.830977    -0.751038    -2.699336
H     -4.151679    -1.355425    -1.677464
H     -1.485284    -2.783132    -2.195379
H     -2.826454    -3.465414    -1.281964
H     -2.669091    -1.648505     0.385986
H     -1.207726    -2.617349     0.270224
H     -0.274806    -0.742312    -1.331233
H     -1.696017     0.195254    -0.843736
H      1.189501     1.503642     1.125085
H      1.143089     0.978929    -0.565147
H     -0.972408     2.191267    -0.967338
H     -1.071911     2.655981     0.726878
H      1.029849     3.963138     0.518674
H     -0.274961     4.524678    -0.520742
H      1.799045     4.567295    -1.784767
H      0.768525     3.297528    -2.465840
H      2.140672     2.873703    -1.420987
H      0.196814    -1.803283     1.862653
H      1.444446    -0.559988     1.951932
H      2.104234    -2.691487     0.838451
H      0.975467    -2.433156    -0.460239
H      3.219188    -0.449339     0.175408
H      2.256677    -0.553524    -1.309717
H      3.227959    -2.780515    -1.815466
H      4.468309    -1.521734    -1.678038
H      4.228536    -2.672404    -0.353018
H     -2.078559     0.845648     1.402679
H     -1.714803    -0.705382     2.139423
H      0.081851     0.322010     3.558387
H     -0.269781     1.918864     2.853660
H     -1.370800     1.559389     4.815687
