30
HETEAB_cation
C      0.009426    -0.245963     2.380925
C     -0.631211    -0.526369     1.029331
N     -0.060518     0.320501    -0.128241
C     -0.224024     1.854855     0.154974
C     -1.625118     2.272087     0.582796
C      1.480716     0.116153    -0.291177
C      1.947822    -1.307125    -0.613664
O      3.367951    -1.341714    -0.527042
C     -0.770286     0.023557    -1.484203
C     -1.234142    -1.413227    -1.668198
H     -0.082441     0.798978     2.685679
H     -0.487148    -0.850273     3.147997
H      1.067447    -0.521707     2.396234
H     -1.710324    -0.345076     1.064276
H     -0.479313    -1.580148     0.780842
H      0.063456     2.373971    -0.767218
H      0.496799     2.125150     0.934287
H     -2.397741     1.981270    -0.131928
H     -1.662972     3.363325     0.672750
H     -1.894466     1.866885     1.561814
H      1.959193     0.468500     0.629845
H      1.812025     0.797861    -1.085530
H      1.672895    -1.589285    -1.632652
H      1.554869    -2.040748     0.093206
H      3.666213    -2.244363    -0.747894
H     -0.078181     0.317222    -2.281249
H     -1.646040     0.672315    -1.555828
H     -0.439962    -2.147037    -1.526686
H     -1.618968    -1.542033    -2.685778
H     -2.055956    -1.657563    -0.987668
