30
HMIM_cation
C      4.417884     0.630264    -1.085911
C      3.225679     0.123822    -0.288139
C      2.005901     1.026661    -0.476132
C      0.811821     0.630694     0.398454
C      0.199564    -0.720434     0.014873
C     -1.002135    -1.101591     0.883834
N     -2.174956    -0.276996     0.668961
C     -2.559092     0.767340     1.466675
C     -3.723695     1.234737     0.910262
N     -4.064812     0.494354    -0.188943
C     -3.125607    -0.422801    -0.315855
C     -3.087596    -1.472712    -1.364618
H      4.705523     1.636887    -0.766051
H      5.278521    -0.030364    -0.941547
H      4.188849     0.661402    -2.155927
H      2.998416    -0.897459    -0.611156
H      3.496663     0.078869     0.772924
H      2.283976     2.058062    -0.225399
H      1.704823     1.029387    -1.530839
H      1.116586     0.615088     1.451813
H      0.053766     1.415977     0.298862
H      0.952963    -1.507400     0.130799
H     -0.085876    -0.704024    -1.043067
H     -1.293773    -2.138732     0.683889
H     -0.742277    -1.045563     1.947636
H     -1.990527     1.086013     2.328647
H     -4.336685     2.061517     1.244063
H     -3.963543    -1.391839    -2.016228
H     -2.195736    -1.370056    -1.988956
H     -3.094624    -2.471103    -0.917265
