16
indole
C     -2.102438    -0.676798    -0.154502
C     -2.090445     0.685237     0.139500
C     -0.886363     1.379329     0.294133
C      0.302083     0.655175     0.142611
N      1.612732     1.066203     0.236572
C      2.457547     0.011392     0.012328
C      1.685238    -1.101488    -0.230960
C      0.320549    -0.708514    -0.151624
C     -0.904642    -1.385933    -0.302740
H     -3.050386    -1.196256    -0.270419
H     -3.032121     1.218005     0.250692
H     -0.881029     2.439756     0.523014
H      1.902154     2.012202     0.441899
H      3.530516     0.143188     0.045077
H      2.058521    -2.094415    -0.443761
H     -0.921917    -2.447081    -0.531819
