20
isopropyl_glycidyl_ether
C     -2.181330    -1.057144     0.623066
C     -1.236951     0.136300     0.529371
C     -1.949835     1.324419    -0.108605
O     -0.120230    -0.277705    -0.262598
C      1.017444     0.573278    -0.133947
C      2.144154    -0.044735    -0.889566
C      3.039620    -1.071643    -0.252072
O      3.451683     0.295494    -0.411359
H     -3.059747    -0.824109     1.232623
H     -2.516644    -1.372661    -0.371277
H     -1.666742    -1.915763     1.068200
H     -0.901814     0.394143     1.541263
H     -2.868532     1.572179     0.432431
H     -2.201410     1.114696    -1.153980
H     -1.311965     2.213574    -0.108561
H      0.799924     1.557749    -0.559211
H      1.274498     0.692867     0.925065
H      1.977859    -0.082533    -1.957021
H      2.806778    -1.416276     0.747496
H      3.503238    -1.812132    -0.891318
