26
isopropyl_carbonate
C     -2.639419    -1.573188    -0.277284
C     -2.142719    -0.158179     0.026250
C     -3.256742     0.671949     0.661604
C     -0.909236    -0.183450     0.941897
O      0.160674    -0.928358     0.361558
C      0.985959    -0.185148    -0.539707
C      2.102178     0.552448     0.214997
O      3.057539    -0.374499     0.721762
C      4.047312    -0.480068    -0.213271
O      4.929382    -1.320370    -0.199060
O      3.919657     0.489662    -1.168977
C      2.947747     1.400637    -0.688120
H     -3.522822    -1.543314    -0.924068
H     -1.871990    -2.158893    -0.793659
H     -2.911210    -2.103983     0.641455
H     -1.872602     0.304115    -0.930404
H     -3.576719     0.243635     1.617603
H     -4.130326     0.719864     0.002901
H     -2.920279     1.697836     0.844926
H     -0.581601     0.832538     1.189936
H     -1.163093    -0.677517     1.886799
H      0.379447     0.511294    -1.128355
H      1.416419    -0.918434    -1.230338
H      1.693472     1.136212     1.044984
H      3.466620     2.195298    -0.140389
H      2.392352     1.849910    -1.516357
