28
L_arginine
N     -3.696148     0.157915    -1.077704
C     -2.927424     0.610435    -0.062406
N     -3.656618     1.413454     0.741841
N     -1.693847     0.397260     0.205993
C     -0.909376    -0.432893    -0.715448
C     -1.371827    -1.876817    -0.622162
O     -2.246114    -2.340270    -1.356719
C      0.586436    -0.292370    -0.394118
C      0.941104    -0.425286     1.092751
C      2.446455    -0.523107     1.377102
C      3.237035     0.762846     1.150378
N      3.632728     0.907094    -0.289421
O      4.341659     0.016913    -0.775996
O      3.243423     1.920984    -0.881408
H     -4.650432    -0.019996    -0.785390
H     -3.335964    -0.677829    -1.540939
H     -4.213419     2.076522     0.215644
H     -3.049121     1.899386     1.393913
H     -1.055233    -0.104352    -1.753060
H     -0.951917    -2.481576     0.197123
H      1.150837    -1.032839    -0.974207
H      0.901923     0.698416    -0.737699
H      0.472961    -1.328003     1.501157
H      0.525312     0.420508     1.653567
H      2.874188    -1.368628     0.825414
H      2.545700    -0.774787     2.441396
H      4.182094     0.741863     1.703862
H      2.675587     1.655156     1.444123
