15
MEPyridinium_cation
C      2.159495    -0.167942     0.144964
N      0.695711    -0.052681     0.037088
C      0.109007     1.158881     0.171490
C     -1.272249     1.288773     0.083265
C     -2.049626     0.159698    -0.139618
C     -1.432793    -1.078064    -0.267150
C     -0.048479    -1.162874    -0.172251
H      2.397428    -0.339919     1.197551
H      2.619370     0.756973    -0.212573
H      2.500010    -1.002709    -0.473097
H      0.752577     2.015595     0.350482
H     -1.741072     2.264880     0.189368
H     -3.133492     0.243776    -0.210935
H     -2.028488    -1.972383    -0.437967
H      0.472599    -2.112004    -0.260617
