31
MTBD
C      2.615524     0.637496    -1.508604
N      1.371028     0.715128    -0.747998
C      1.053909     2.073272    -0.278843
C      0.285703     2.111266     1.038056
C     -1.156106     1.629910     0.882937
N     -1.288596     0.600516    -0.147342
C     -2.650323     0.060145    -0.210187
C     -2.437027    -1.306250    -0.827975
C     -1.149967    -1.772783    -0.169341
N     -0.450383    -0.525397     0.158037
C      0.934544    -0.427231    -0.076390
N      1.842042    -1.294975     0.257551
C      1.508495    -2.440013     1.080158
H      3.483345     0.669991    -0.841208
H      2.689199     1.473931    -2.212459
H      2.655940    -0.283367    -2.100811
H      1.990041     2.625418    -0.123738
H      0.504510     2.605908    -1.064545
H      0.271855     3.138845     1.421207
H      0.804932     1.506895     1.792788
H     -1.523616     1.287977     1.859258
H     -1.776012     2.487114     0.591493
H     -3.096804    -0.053801     0.786187
H     -3.307651     0.686539    -0.820686
H     -3.269925    -1.992206    -0.649432
H     -2.293327    -1.214949    -1.911945
H     -0.587347    -2.416340    -0.853740
H     -1.368954    -2.324662     0.750838
H      1.167994    -3.280279     0.468726
H      2.410288    -2.769139     1.606897
H      0.766685    -2.208958     1.851110
