12
NBS
O      1.048539    -2.146659     0.677014
C      0.599729    -1.062681     0.332905
C     -0.867625    -0.756198     0.272884
C     -0.944490     0.683770    -0.198678
C      0.483968     1.105994    -0.377285
O      0.815391     2.221158    -0.753342
N      1.288970     0.051518    -0.052785
Br     3.153584     0.126044    -0.129142
H     -1.359505    -1.432905    -0.431919
H     -1.312308    -0.874579     1.265290
H     -1.429537     1.321430     0.546134
H     -1.476718     0.763110    -1.151077
