20
NTf2_anion
O     -1.259380    -1.053469     1.103296
S     -0.984370    -0.078981     0.038609
O     -1.393899    -0.547984    -1.292230
O     -1.475336     1.270189     0.350868
C      0.878025     0.070448    -0.034439
F      1.307430     0.954589    -0.991490
F      1.427439     0.503622     1.145623
F      1.500091    -1.118414    -0.320238
O      0.356533     2.091539     0.228280
S      0.493661     0.924161    -0.645511
O      1.386802     1.162382    -1.785444
N     -0.876881     0.253241    -1.087792
C     -1.644010    -0.289255    -0.012263
F     -1.189853    -1.516213     0.335777
F     -1.679716     0.473418     1.099636
F     -2.930451    -0.461530    -0.412625
C      1.333108    -0.385876     0.359896
F      0.765613    -0.571203     1.585694
F      2.645100    -0.080667     0.599240
F      1.340095    -1.599997    -0.264888
