42
OH_C8_NMe2_cation
C      5.494643    -0.663998     1.686331
C      4.454694    -0.397701     0.609748
C      3.386017     0.582179     1.093581
C      2.341484     0.847353     0.007064
C      1.269567     1.823529     0.495862
C      0.259596     2.214184    -0.587796
C     -0.537642     1.058365    -1.206736
C     -1.343792     0.275679    -0.166819
N     -2.283854    -0.778879    -0.777059
C     -3.389246    -0.117842    -1.604771
C     -1.515978    -1.746432    -1.680941
C     -2.915998    -1.647071     0.360479
C     -3.768794    -0.874440     1.382834
O     -4.921899    -0.312873     0.769220
H      5.032782    -1.097002     2.579377
H      6.004440     0.260240     1.976542
H      6.248850    -1.367031     1.319145
H      4.953030     0.004179    -0.280110
H      3.986939    -1.345687     0.319491
H      3.859969     1.526857     1.386805
H      2.892948     0.177214     1.985775
H      1.879849    -0.103040    -0.283469
H      2.833413     1.256940    -0.883345
H      0.747122     1.399596     1.361181
H      1.755705     2.741017     0.851038
H      0.788974     2.738926    -1.393007
H     -0.443689     2.939402    -0.159492
H      0.151721     0.397014    -1.741022
H     -1.205583     1.489502    -1.960109
H     -0.677501    -0.263054     0.515581
H     -1.964684     0.964433     0.414790
H     -4.168918    -0.858887    -1.802695
H     -3.778482     0.744622    -1.059405
H     -2.960809     0.219687    -2.552904
H     -2.200263    -2.538380    -2.000709
H     -0.683350    -2.165149    -1.108344
H     -1.150608    -1.206716    -2.558263
H     -2.083662    -2.147426     0.868405
H     -3.534699    -2.400812    -0.140808
H     -4.109179    -1.573269     2.154457
H     -3.203707    -0.080237     1.876818
H     -5.499409     0.025009     1.481330
