37
OH_C8_Pyridinium_cation
C      4.446922     0.409246     1.411071
C      4.242244     1.043623     0.044017
C      3.048357     0.468756    -0.722707
C      1.704590     0.754594    -0.047455
C      0.497267     0.373659    -0.911129
C      0.404728    -1.129027    -1.193001
C     -0.888186    -1.523510    -1.917629
C     -2.002487    -2.016008    -0.996452
N     -2.538419    -0.924166    -0.149921
C     -2.218128    -0.873934     1.165427
C     -2.727465     0.127538     1.978099
C     -3.576724     1.070706     1.426254
O     -4.056130     2.037849     2.251358
C     -3.915007     1.012885     0.086547
C     -3.380463    -0.009017    -0.689098
H      4.536819    -0.678605     1.330189
H      5.364845     0.791877     1.868814
H      3.618981     0.639319     2.087993
H      4.125586     2.127552     0.158694
H      5.147842     0.884282    -0.553460
H      3.187804    -0.611558    -0.843765
H      3.045285     0.904736    -1.729224
H      1.641476     0.222475     0.908672
H      1.637303     1.825649     0.179900
H     -0.403958     0.717774    -0.396087
H      0.539203     0.921657    -1.860522
H      1.245837    -1.408549    -1.839028
H      0.517177    -1.703789    -0.266576
H     -0.648485    -2.353972    -2.594137
H     -1.239419    -0.701657    -2.551921
H     -1.657929    -2.828522    -0.347451
H     -2.845821    -2.401086    -1.582063
H     -1.547295    -1.634315     1.554978
H     -2.466047     0.174152     3.032483
H     -4.641101     2.653074     1.774562
H     -4.583604     1.741571    -0.362319
H     -3.615598    -0.105259    -1.745508
