13
PC_product
C     -1.563712     0.577625    -0.183998
C     -0.324445    -0.288673    -0.280489
O      0.629224     0.291356    -1.155493
C      1.858211    -0.082431    -0.687227
O      2.902817     0.062985    -1.297893
O      1.760350    -0.638168     0.558207
C      0.439174    -0.390114     1.005245
H     -1.310934     1.596604     0.129151
H     -2.043548     0.663710    -1.164747
H     -2.285379     0.159707     0.524069
H     -0.585543    -1.278869    -0.673151
H      0.085038    -1.210199     1.636339
H      0.438744     0.536467     1.589986
