13
picolinate_anion
O      2.833532    -1.601195    -0.648343
C      2.362636    -0.436725    -0.434588
C      0.845239    -0.289403    -0.171173
C      0.329581     0.991313     0.063500
C     -1.032506     1.161448     0.304413
C     -1.863844     0.051033     0.308231
C     -1.295256    -1.187501     0.069914
N      0.017470    -1.383285    -0.165990
O      3.057358     0.636793    -0.420575
H      0.999413     1.847548     0.055975
H     -1.429951     2.154191     0.485979
H     -2.926312     0.145821     0.491692
H     -1.897361    -2.090037     0.060965
