31
Piperidinium_NMe_NPr
C      4.329428     0.077097    -0.379071
C      3.010217    -0.332599     0.260392
C      1.817172     0.256242    -0.502317
N      0.524487    -0.216443     0.015642
C      0.177431     0.373141     1.311767
C     -1.038054    -0.338743     1.919047
C     -2.048487    -0.822640     0.873589
C     -2.007017     0.025880    -0.405380
N     -2.464240     1.395596    -0.083395
C     -2.970844    -0.547409    -1.455538
C     -0.547080     0.046363    -0.974915
H      5.169121    -0.349682     0.178399
H      4.441629     1.166013    -0.382326
H      4.392724    -0.278826    -1.412334
H      3.015047     0.003675     1.302223
H      2.943439    -1.427120     0.270828
H      1.915663    -0.057195    -1.550340
H      1.864152     1.352987    -0.493591
H      0.996599     0.275977     2.031946
H     -0.014567     1.449263     1.212773
H     -0.708479    -1.203358     2.508718
H     -1.530405     0.344922     2.621389
H     -1.813187    -1.865552     0.619533
H     -3.053424    -0.841848     1.314461
H     -3.420680     1.362232     0.267814
H     -2.491393     1.958066    -0.932825
H     -4.003541    -0.561705    -1.087611
H     -2.951414     0.042849    -2.379117
H     -2.702265    -1.577855    -1.715012
H     -0.379761     1.010020    -1.477354
H     -0.452272    -0.719348    -1.755958
