38
PPh3_methyl_cation
C      0.617942     0.325298    -2.386012
P      0.167620     0.088241    -0.647234
C     -1.065419    -1.192127    -0.583828
C     -1.004185    -2.216865     0.369024
C     -1.984476    -3.210176     0.413665
C     -3.042922    -3.187907    -0.490967
C     -3.123278    -2.170127    -1.437707
C     -2.142055    -1.178202    -1.481659
C      1.641724    -0.387751     0.226951
C      2.492371    -1.365891    -0.306983
C      3.647398    -1.757641     0.372053
C      3.964909    -1.178712     1.597888
C      3.124997    -0.212435     2.145633
C      1.969589     0.177819     1.465659
C     -0.472283     1.634647    -0.044821
C     -1.631912     1.688194     0.738860
C     -2.117572     2.908275     1.213379
C     -1.445648     4.090945     0.915093
C     -0.285851     4.053192     0.145621
C      0.198045     2.832762    -0.328765
H      0.870168    -0.631197    -2.852289
H      1.483224     0.988385    -2.472707
H     -0.212444     0.769850    -2.941662
H     -0.191538    -2.249181     1.090895
H     -1.920850    -3.999851     1.157739
H     -3.806203    -3.960407    -0.455039
H     -3.951913    -2.145196    -2.140444
H     -2.228325    -0.382654    -2.217640
H      2.251838    -1.838950    -1.255861
H      4.296502    -2.517526    -0.054963
H      4.863268    -1.482983     2.127997
H      3.366336     0.238123     3.104819
H      1.323764     0.927654     1.916431
H     -2.167869     0.776361     0.991555
H     -3.020284     2.932722     1.818193
H     -1.823275     5.040025     1.285622
H      0.245433     4.973313    -0.082882
H      1.113171     2.819977    -0.915614
