33
Pyrazolium_NEt_NPrNH2
C     -4.956939     1.073965     1.398341
C     -3.854459     0.278328     0.721275
N     -2.835674     1.177178     0.215763
C     -1.648423     0.709659    -0.277249
N     -1.211123    -0.492652    -0.168875
C      0.094732    -0.701570    -0.805076
C      0.442123    -2.184196    -0.673526
C      1.222283    -2.285456     0.629531
C      1.448354    -0.845715     1.071351
N      1.176692     0.005297    -0.099225
C      2.361762     0.168043    -0.961371
C      3.387298     1.155323    -0.365112
N      4.500797     1.398492    -1.287379
H     -5.726834     0.402158     1.790154
H     -5.432427     1.765490     0.694640
H     -4.560053     1.664308     2.231057
H     -3.420960    -0.420301     1.445701
H     -4.275512    -0.305415    -0.104551
H     -3.170373     2.050366    -0.174424
H     -1.082617     1.504575    -0.798083
H      0.018707    -0.424349    -1.864837
H      1.084188    -2.500596    -1.504626
H     -0.438150    -2.835849    -0.666781
H      2.172704    -2.803479     0.460291
H      0.662541    -2.844065     1.387000
H      2.441169    -0.705124     1.509261
H      0.730579    -0.590753     1.861515
H      2.849457    -0.791351    -1.176599
H      2.038959     0.582988    -1.925738
H      2.899466     2.110890    -0.140480
H      3.799911     0.766700     0.570792
H      4.144245     1.845820    -2.131282
H      5.137577     2.071295    -0.861458
