33
Pyrazolium_NEt_NEtOH
C     -2.295946    -1.927012    -0.427564
C     -2.542397    -0.500486    -0.883993
N     -1.509335     0.465992    -0.407825
C     -1.437153     0.731361     1.079749
C     -2.621241     1.623269     1.462851
O     -2.805726     2.571569     0.402307
C     -0.189828     0.254673    -1.005687
N      0.583303    -0.543737    -0.373125
C      1.891550    -0.671017    -1.012996
C      2.796776    -1.530561    -0.144523
C      3.395593    -0.556806     0.858374
C      3.139565     0.823586     0.273479
N      2.586407     0.611475    -1.075154
H     -3.103447    -2.571818    -0.790578
H     -2.276363    -2.012638     0.662193
H     -1.359793    -2.328026    -0.826108
H     -3.513782    -0.146088    -0.524693
H     -2.553195    -0.443443    -1.978467
H     -1.805992     1.392580    -0.761805
H     -1.403090    -0.208138     1.636746
H     -0.512143     1.294403     1.253644
H     -2.423129     2.153021     2.399295
H     -3.541058     1.040224     1.565883
H     -3.445785     3.237996     0.728185
H      0.066687     0.783333    -1.943348
H      1.778838    -1.119197    -2.007653
H      2.271551    -2.353181     0.351570
H      3.602475    -1.960546    -0.752762
H      4.464672    -0.750292     0.994955
H      2.906455    -0.654705     1.833874
H      2.414325     1.371267     0.886115
H      4.053402     1.424804     0.230854
H      3.387805     0.498135    -1.703791
