25
Pyrazolium_NEt
C      3.602768     0.725545    -0.684773
C      3.016639    -0.661108    -0.884050
N      2.353719    -1.111781     0.322785
C      1.075525    -0.752058     0.644991
N      0.256563    -0.119223    -0.111740
C     -1.042772     0.141112     0.485030
C     -1.753087     1.232834    -0.323496
C     -3.078307     0.616337    -0.742839
C     -3.273812    -0.506742     0.251526
N     -1.921533    -1.020696     0.415717
H      4.133672     1.047304    -1.586023
H      4.309995     0.736304     0.151387
H      2.820230     1.460624    -0.469842
H      2.328140    -0.666428    -1.736451
H      3.822570    -1.363544    -1.122648
H      2.961044    -1.414675     1.074449
H      0.807967    -1.078059     1.666893
H     -0.944430     0.486648     1.523528
H     -1.939697     2.103668     0.316618
H     -1.188489     1.575673    -1.197443
H     -3.897493     1.341122    -0.725633
H     -2.997387     0.216530    -1.761214
H     -3.956781    -1.273963    -0.123375
H     -3.661183    -0.126052     1.203817
H     -1.833862    -1.589371     1.250920
