24
Pyrrolidinium_NMe_NEt
C      2.368561     0.725082     0.081850
C      1.182119     0.063797     0.764999
N      0.091679    -0.415886    -0.213065
C      0.658219    -1.411684    -1.213654
C     -1.054504    -1.065556     0.580008
C     -1.929186     0.094135     1.029296
C     -1.618737     1.257026     0.097769
C     -0.632490     0.726025    -0.925952
H      3.082356     1.061655     0.841678
H      2.079478     1.603502    -0.499840
H      2.904191     0.031988    -0.572653
H      1.518261    -0.818753     1.321574
H      0.718918     0.759872     1.471606
H      1.343594    -0.885019    -1.882227
H     -0.164797    -1.833593    -1.798599
H      1.173006    -2.201314    -0.659379
H     -0.642934    -1.659325     1.401922
H     -1.609426    -1.717242    -0.104776
H     -1.702390     0.370473     2.065329
H     -2.988738    -0.180329     0.996916
H     -1.173955     2.082761     0.665149
H     -2.520806     1.648466    -0.383267
H     -1.165114     0.294420    -1.781900
H      0.082695     1.469500    -1.282784
