44
salen_Co_complex
O     -3.883638    -3.043588     0.917062
C     -4.364967    -1.789093     0.677043
C     -5.568467    -1.354918     1.072365
C     -5.774083    -0.014690     0.568767
C     -6.858616     0.834054     0.702769
C     -6.792719     2.092926     0.092547
C     -5.654855     2.483686    -0.637350
C     -4.565463     1.620918    -0.767631
C     -4.657662     0.382589    -0.156908
C     -3.679786    -0.710941    -0.110277
N     -2.531371    -0.591695    -0.656279
C     -1.523700    -1.632150    -0.546700
C     -0.204060    -1.077922    -1.082002
C      0.928304    -2.084792    -0.902485
N      2.155460    -1.582553    -1.505046
C      2.972806    -0.816409    -0.872174
C      2.821957    -0.299455     0.515673
C      3.745483     0.487178     1.078572
C      4.962066     0.894849     0.380837
C      5.897483     1.715030     1.025417
C      7.063730     2.114154     0.366423
C      7.306485     1.698931    -0.941487
C      6.382748     0.883142    -1.592822
C      5.214032     0.483270    -0.930957
C      4.238354    -0.382316    -1.624112
O      4.442153    -0.748029    -2.774732
H     -3.187509    -3.212799     0.263602
H     -6.293035    -1.915446     1.639692
H     -7.739975     0.538341     1.262593
H     -7.632389     2.779261     0.182318
H     -5.624323     3.466145    -1.103350
H     -3.678110     1.903484    -1.323994
H     -1.389263    -1.934687     0.498162
H     -1.811372    -2.505030    -1.143079
H      0.038428    -0.139376    -0.568875
H     -0.313991    -0.823603    -2.144052
H      0.666393    -3.018279    -1.414867
H      1.063492    -2.356179     0.150428
H      1.931628    -0.566994     1.069007
H      3.596536     0.848672     2.092644
H      5.730954     2.053717     2.045940
H      7.783962     2.751185     0.875039
H      8.213539     2.009765    -1.454585
H      6.573364     0.559645    -2.614659
