24
Coordinates from ORCA-job scan_d3.0 E -3149.681219806520
  Br          0.96929328171807      0.04125427257939      2.95898452127426
  C           1.00394065806577      0.50174261111768      1.03778989101657
  C          -0.31797093251619      0.16030223336899      0.33853509413872
  O          -0.71364835191070      1.06307693906784     -0.52718636369347
  H           1.17476463627354      1.57042625540458      1.00067411477701
  H           1.86036233690630     -0.01722204732227      0.62268644615892
  H          -1.10062098096802     -0.13999557963658      1.06053613247445
  C          -0.14195217917346     -1.25083103233360     -0.50645694281465
  H          -1.12147733623029     -1.44744397119057     -0.93258485965973
  H           0.59149021959705     -1.03411623835175     -1.27694370521228
  O           0.34433313883499     -2.26199213612066      0.28424561215038
  C          -0.64170859884846     -3.02905893382129      1.03195509724776
  H          -1.35019083779175     -2.32069659795297      1.46951447697217
  C          -1.37674182217697     -3.98157625237778      0.11303130725250
  C           0.10797689604141     -3.74239556800036      2.12729847936235
  H          -2.11253894880499     -4.54121904213631      0.68870802516124
  H          -1.90939901748199     -3.46192989313377     -0.68064157172402
  H          -0.68441709178049     -4.69172564804349     -0.33750581658441
  H          -0.58945385745237     -4.30459493232570      2.74552557478352
  H           0.83085010423775     -4.44282207570450      1.71000194696224
  H           0.63564567924794     -3.03528984756081      2.76271469296374
  C          -1.08605773134766      3.69003421992951      0.87295897932427
  O          -0.53658664019912      4.29653826036808      0.04407801866383
  O          -1.64371293554034      3.11504299027636      1.71908718110461
