24
Coordinates from ORCA-job scan_d3.0 E -3149.680771858462
  Br      1.061790     -0.110210      2.929481
  C       1.056942      0.506173      1.050765
  C      -0.241016      0.158925      0.318143
  O      -0.582988      1.052416     -0.581957
  H       1.164180      1.582242      1.108816
  H       1.937878      0.076517      0.586920
  H      -1.054554     -0.105844      1.019774
  C      -0.069202     -1.263256     -0.501611
  H      -1.042263     -1.447988     -0.946811
  H       0.682792     -1.068882     -1.259892
  O       0.386303     -2.278421      0.303383
  C      -0.612366     -3.001902      1.077066
  H      -1.238876     -2.261130      1.581071
  C      -1.473509     -3.866014      0.180232
  C       0.148482     -3.808359      2.097888
  H      -2.198282     -4.401917      0.791111
  H      -2.031479     -3.282999     -0.549150
  H      -0.864911     -4.598826     -0.348143
  H      -0.548557     -4.337904      2.744610
  H       0.785519     -4.545727      1.610296
  H       0.769804     -3.166014      2.716742
  C      -1.277466      3.625791      0.794794
  O      -0.440787      4.252292      0.281145
  O      -2.125256      3.026545      1.322331
24
Coordinates from ORCA-job scan_d3.0 E -3149.680799196570
  Br      1.097497     -0.097616      2.921201
  C       1.068518      0.515022      1.041281
  C      -0.236332      0.159758      0.323795
  O      -0.593065      1.048771     -0.575194
  H       1.172154      1.591815      1.095315
  H       1.946027      0.088111      0.568708
  H      -1.040760     -0.106480      1.035146
  C      -0.066966     -1.263818     -0.494960
  H      -1.040411     -1.447175     -0.939721
  H       0.685215     -1.071263     -1.253558
  O       0.385388     -2.279917      0.310526
  C      -0.618062     -3.005260      1.076467
  H      -1.250048     -2.265609      1.575289
  C      -1.470222     -3.870290      0.171881
  C       0.135231     -3.810794      2.103579
  H      -2.199797     -4.407212      0.776062
  H      -2.022296     -3.287783     -0.562409
  H      -0.856017     -4.602218     -0.351220
  H      -0.566767     -4.341738      2.743797
  H       0.777782     -4.546910      1.621441
  H       0.749724     -3.167616      2.728325
  C      -1.283737      3.624466      0.799130
  O      -0.460560      4.255235      0.268568
  O      -2.120315      3.024025      1.343558
24
Coordinates from ORCA-job scan_d3.0 E -3149.680835607664
  Br      1.151195     -0.106966      2.898872
  C       1.086194      0.520355      1.024578
  C      -0.230325      0.160309      0.329928
  O      -0.609709      1.046558     -0.562779
  H       1.186632      1.597461      1.082561
  H       1.956911      0.100197      0.533856
  H      -1.019603     -0.109610      1.056380
  C      -0.068231     -1.262931     -0.491360
  H      -1.043022     -1.442075     -0.934527
  H       0.683696     -1.072216     -1.250799
  O       0.380356     -2.280624      0.313960
  C      -0.629576     -3.007323      1.070278
  H      -1.275424     -2.268194      1.552065
  C      -1.459460     -3.886173      0.158107
  C       0.111845     -3.797892      2.117329
  H      -2.196702     -4.422673      0.753229
  H      -2.001347     -3.313883     -0.591619
  H      -0.830717     -4.618464     -0.346902
  H      -0.597635     -4.329402      2.748835
  H       0.769166     -4.532513      1.653334
  H       0.709008     -3.144277      2.748172
  C      -1.288635      3.623365      0.815310
  O      -0.490593      4.261474      0.255064
  O      -2.101843      3.021002      1.393134
24
Coordinates from ORCA-job scan_d3.0 E -3149.680858407196
  Br      1.182274     -0.099900      2.887232
  C       1.096936      0.524591      1.013281
  C      -0.227941      0.162337      0.335734
  O      -0.620993      1.046943     -0.552542
  H       1.198641      1.601567      1.068339
  H       1.961987      0.103495      0.513124
  H      -1.006881     -0.108216      1.073126
  C      -0.073202     -1.261861     -0.485989
  H      -1.049796     -1.438341     -0.926506
  H       0.676912     -1.072515     -1.247639
  O       0.375442     -2.280787      0.317826
  C      -0.637269     -3.011184      1.066847
  H      -1.293772     -2.274702      1.538183
  C      -1.449350     -3.898626      0.147177
  C       0.096326     -3.793074      2.125809
  H      -2.192493     -4.436456      0.733755
  H      -1.982762     -3.332354     -0.613163
  H      -0.809181     -4.629733     -0.345007
  H      -0.617651     -4.328372      2.749080
  H       0.765581     -4.523925      1.673014
  H       0.679519     -3.133007      2.762846
  C      -1.288257      3.627383      0.824443
  O      -0.511104      4.267420      0.237759
  O      -2.080786      3.024823      1.430279
24
Coordinates from ORCA-job scan_d3.0 E -3149.680899438497
  Br      1.216184     -0.094543      2.872984
  C       1.109544      0.523967      0.998859
  C      -0.227101      0.165319      0.342596
  O      -0.634194      1.052402     -0.536374
  H       1.217629      1.600374      1.049647
  H       1.965673      0.097592      0.487545
  H      -0.993379     -0.106244      1.093166
  C      -0.086282     -1.258459     -0.482811
  H      -1.066837     -1.429879     -0.916768
  H       0.658910     -1.070023     -1.249671
  O       0.364780     -2.280026      0.316274
  C      -0.649467     -3.015971      1.057876
  H      -1.324370     -2.284004      1.509797
  C      -1.430447     -3.924241      0.131671
  C       0.074576     -3.776668      2.138507
  H      -2.181400     -4.463497      0.707052
  H      -1.951138     -3.373112     -0.648386
  H      -0.770274     -4.653849     -0.335710
  H      -0.643800     -4.318384      2.751113
  H       0.765253     -4.500359      1.706844
  H       0.633087     -3.101610      2.781833
  C      -1.279674      3.636498      0.844134
  O      -0.538515      4.277017      0.213543
  O      -2.036579      3.033211      1.493284
24
Coordinates from ORCA-job scan_d3.0 E -3149.680947563127
  Br      1.226376     -0.086429      2.869836
  C       1.114355      0.517274      0.991714
  C      -0.231989      0.169978      0.348723
  O      -0.641747      1.063564     -0.521730
  H       1.234989      1.592638      1.034291
  H       1.961962      0.077988      0.476998
  H      -0.991647     -0.099686      1.107104
  C      -0.107901     -1.253116     -0.480650
  H      -1.094492     -1.420253     -0.902994
  H       0.628047     -1.064754     -1.256568
  O       0.350860     -2.277201      0.310664
  C      -0.659729     -3.022142      1.048291
  H      -1.353781     -2.297842      1.482997
  C      -1.408000     -3.953137      0.117656
  C       0.060037     -3.759848      2.147554
  H      -2.164651     -4.495895      0.682269
  H      -1.916906     -3.418479     -0.681453
  H      -0.727144     -4.679058     -0.325144
  H      -0.658370     -4.311798      2.750977
  H       0.773460     -4.472572      1.734854
  H       0.593131     -3.068932      2.795616
  C      -1.260970      3.654002      0.858919
  O      -0.556277      4.288724      0.182951
  O      -1.977435      3.052482      1.554130
24
Coordinates from ORCA-job scan_d3.0 E -3149.680983082967
  Br      1.223614     -0.075753      2.874618
  C       1.114704      0.510490      0.990802
  C      -0.236664      0.172310      0.352788
  O      -0.643992      1.071284     -0.512703
  H       1.245120      1.585167      1.023557
  H       1.957287      0.058542      0.479004
  H      -0.994472     -0.095825      1.113508
  C      -0.123417     -1.249502     -0.479741
  H      -1.115202     -1.415142     -0.890747
  H       0.603809     -1.060817     -1.263849
  O       0.342012     -2.274477      0.305939
  C      -0.665003     -3.025875      1.041937
  H      -1.371079     -2.307225      1.466365
  C      -1.392897     -3.970585      0.108826
  C       0.053258     -3.749212      2.151621
  H      -2.153009     -4.516011      0.666203
  H      -1.893757     -3.445307     -0.701627
  H      -0.699737     -4.693560     -0.319518
  H      -0.663889     -4.308411      2.749840
  H       0.780602     -4.454064      1.749758
  H       0.571106     -3.048995      2.802142
  C      -1.244863      3.666283      0.867490
  O      -0.571344      4.295225      0.155500
  O      -1.930006      3.066967      1.595292
24
Coordinates from ORCA-job scan_d3.0 E -3149.681009095510
  Br      1.185801     -0.064871      2.895715
  C       1.103861      0.502853      1.004417
  C      -0.241901      0.170769      0.350991
  O      -0.634223      1.073687     -0.516982
  H       1.240196      1.577168      1.027760
  H       1.949574      0.039337      0.508897
  H      -1.009496     -0.096393      1.101572
  C      -0.126143     -1.249237     -0.483433
  H      -1.119854     -1.418472     -0.888345
  H       0.596359     -1.058943     -1.271397
  O       0.343629     -2.272491      0.301367
  C      -0.659141     -3.024601      1.042643
  H      -1.361675     -2.306226      1.473245
  C      -1.395447     -3.965575      0.112151
  C       0.066456     -3.751675      2.144950
  H      -2.153088     -4.511164      0.672658
  H      -1.900045     -3.435820     -0.693224
  H      -0.707226     -4.688424     -0.324349
  H      -0.646554     -4.311822      2.747132
  H       0.789842     -4.456194      1.735429
  H       0.591182     -3.054580      2.793375
  C      -1.236729      3.670294      0.859467
  O      -0.570929      4.294771      0.136188
  O      -1.912270      3.073115      1.596779
24
Coordinates from ORCA-job scan_d3.0 E -3149.681031710385
  Br      1.172496     -0.059573      2.903095
  C       1.101071      0.498512      1.008491
  C      -0.244309      0.170380      0.351526
  O      -0.633174      1.076047     -0.515409
  H       1.242685      1.572358      1.025220
  H       1.946148      0.026584      0.520236
  H      -1.014155     -0.097758      1.099470
  C      -0.128692     -1.248006     -0.486162
  H      -1.123533     -1.417885     -0.887903
  H       0.591445     -1.056839     -1.275949
  O       0.342459     -2.271327      0.297976
  C      -0.659283     -3.024868      1.039651
  H      -1.364459     -2.307520      1.467654
  C      -1.392388     -3.969900      0.110573
  C       0.067057     -3.747347      2.144243
  H      -2.150202     -4.515232      0.670952
  H      -1.896175     -3.442855     -0.697029
  H      -0.702345     -4.692614     -0.323255
  H      -0.644990     -4.308872      2.746292
  H       0.793383     -4.450150      1.736929
  H       0.588605     -3.047605      2.792446
  C      -1.230616      3.674137      0.860453
  O      -0.587772      4.297307      0.115397
  O      -1.881075      3.078535      1.622108
24
Coordinates from ORCA-job scan_d3.0 E -3149.681063417736
  Br      1.148603     -0.048938      2.915709
  C       1.096502      0.494453      1.016266
  C      -0.245749      0.167660      0.351396
  O      -0.632167      1.075203     -0.515449
  H       1.244215      1.567725      1.021808
  H       1.942590      0.010556      0.542134
  H      -1.019558     -0.104713      1.093600
  C      -0.123108     -1.248050     -0.490950
  H      -1.116708     -1.420038     -0.894502
  H       0.598579     -1.055127     -1.278556
  O       0.346398     -2.271143      0.295414
  C      -0.656743     -3.023195      1.037157
  H      -1.360299     -2.304128      1.465081
  C      -1.394220     -3.967052      0.110297
  C       0.069385     -3.746112      2.141282
  H      -2.152498     -4.509231      0.672892
  H      -1.898531     -3.439246     -0.696408
  H      -0.707608     -4.692263     -0.324797
  H      -0.643117     -4.306094      2.744272
  H       0.793860     -4.450370      1.733217
  H       0.592444     -3.047161      2.789159
  C      -1.226810      3.674152      0.860001
  O      -0.634590      4.297355      0.073989
  O      -1.828690      3.081268      1.663993
24
Coordinates from ORCA-job scan_d3.0 E -3149.681089014856
  Br      1.119922     -0.038542      2.928126
  C       1.088792      0.495313      1.025546
  C      -0.246787      0.165046      0.349381
  O      -0.630002      1.070622     -0.521172
  H       1.238386      1.568394      1.024464
  H       1.938916      0.005732      0.564792
  H      -1.026159     -0.110339      1.084166
  C      -0.112283     -1.249639     -0.493510
  H      -1.101572     -1.424299     -0.906142
  H       0.616253     -1.054957     -1.274185
  O       0.353579     -2.272098      0.296628
  C      -0.650981     -3.021007      1.039393
  H      -1.345962     -2.298695      1.475947
  C      -1.403901     -3.954741      0.114873
  C       0.078321     -3.754426      2.134468
  H      -2.159242     -4.494574      0.683614
  H      -1.914843     -3.420196     -0.683093
  H      -0.727084     -4.682362     -0.331393
  H      -0.633739     -4.310239      2.741849
  H       0.792629     -4.463488      1.716991
  H       0.612663     -3.062309      2.780493
  C      -1.228255      3.669815      0.852250
  O      -0.659811      4.292745      0.048663
  O      -1.806659      3.079752      1.674857
24
Coordinates from ORCA-job scan_d3.0 E -3149.681117058793
  Br      1.050531     -0.024825      2.953669
  C       1.067732      0.493512      1.046556
  C      -0.253098      0.161604      0.343650
  O      -0.623433      1.064876     -0.534821
  H       1.223915      1.565535      1.037909
  H       1.925787     -0.005981      0.611741
  H      -1.046482     -0.116317      1.061881
  C      -0.098490     -1.251696     -0.498379
  H      -1.079638     -1.431169     -0.927759
  H       0.641962     -1.052613     -1.266537
  O       0.364153     -2.272655      0.296227
  C      -0.638791     -3.017271      1.044394
  H      -1.317036     -2.290939      1.500324
  C      -1.420545     -3.932684      0.126038
  C       0.101445     -3.769964      2.119263
  H      -2.167075     -4.471144      0.707743
  H      -1.946952     -3.386296     -0.653588
  H      -0.761454     -4.662286     -0.342938
  H      -0.605997     -4.319183      2.737908
  H       0.795747     -4.486526      1.681501
  H       0.658753     -3.089998      2.758761
  C      -1.222289      3.665649      0.835344
  O      -0.682697      4.284514      0.009107
  O      -1.773870      3.081364      1.679012
24
Coordinates from ORCA-job scan_d3.0 E -3149.681129750200
  Br      1.025132     -0.021744      2.961425
  C       1.058299      0.493929      1.053747
  C      -0.256448      0.160395      0.340578
  O      -0.622233      1.062124     -0.540987
  H       1.215244      1.565677      1.046467
  H       1.920295     -0.004935      0.625652
  H      -1.054824     -0.118127      1.053187
  C      -0.093793     -1.252906     -0.499649
  H      -1.070913     -1.434021     -0.937358
  H       0.652241     -1.051356     -1.261905
  O       0.367527     -2.273286      0.296060
  C      -0.634184     -3.015935      1.047305
  H      -1.305322     -2.288496      1.511895
  C      -1.427219     -3.923720      0.131354
  C       0.110848     -3.776952      2.113447
  H      -2.168821     -4.463731      0.718075
  H      -1.961029     -3.372405     -0.639728
  H      -0.774474     -4.652414     -0.347744
  H      -0.594191     -4.322996      2.737576
  H       0.796144     -4.496871      1.667142
  H       0.678625     -3.101944      2.748984
  C      -1.219748      3.663861      0.827933
  O      -0.678028      4.280707      0.001719
  O      -1.770947      3.080655      1.671831
24
Coordinates from ORCA-job scan_d3.0 E -3149.681142205550
  Br      0.987519     -0.019270      2.971832
  C       1.043586      0.492917      1.063762
  C      -0.262231      0.157860      0.335353
  O      -0.620648      1.058935     -0.549441
  H       1.201188      1.564505      1.059296
  H       1.911271     -0.004272      0.644985
  H      -1.068003     -0.122082      1.039646
  C      -0.087887     -1.254988     -0.502891
  H      -1.059906     -1.439133     -0.950606
  H       0.664384     -1.049228     -1.258052
  O       0.372286     -2.274061      0.294293
  C      -0.627377     -3.013422      1.051017
  H      -1.288936     -2.284259      1.526384
  C      -1.435288     -3.911731      0.138940
  C       0.123765     -3.784483      2.106169
  H      -2.170168     -4.454386      0.731765
  H      -1.978479     -3.353718     -0.620686
  H      -0.790688     -4.638628     -0.353660
  H      -0.578004     -4.325756      2.737988
  H       0.797019     -4.509172      1.649373
  H       0.705638     -3.115700      2.735577
  C      -1.212988      3.661674      0.819822
  O      -0.670878      4.275056     -0.008647
  O      -1.762995      3.078851      1.664788
24
Coordinates from ORCA-job scan_d3.0 E -3149.681149254615
  Br      0.968749     -0.024016      2.974917
  C       1.034277      0.492833      1.068460
  C      -0.265824      0.155639      0.331010
  O      -0.620050      1.056584     -0.555326
  H       1.188632      1.564845      1.069345
  H       1.906342      0.001024      0.652344
  H      -1.075552     -0.125685      1.030427
  C      -0.083654     -1.256980     -0.505748
  H      -1.052891     -1.443630     -0.958508
  H       0.671498     -1.048677     -1.257355
  O       0.375830     -2.274787      0.292920
  C      -0.622786     -3.011317      1.053700
  H      -1.277866     -2.280306      1.535059
  C      -1.440504     -3.903956      0.144702
  C       0.131471     -3.788014      2.102573
  H      -2.171331     -4.448110      0.741094
  H      -1.988990     -3.341468     -0.607744
  H      -0.801287     -4.629813     -0.356377
  H      -0.568726     -4.325834      2.738980
  H       0.797303     -4.515992      1.640114
  H       0.721827     -3.123068      2.728176
  C      -1.208756      3.658936      0.816236
  O      -0.656072      4.272082     -0.005340
  O      -1.769458      3.075218      1.653348
24
Coordinates from ORCA-job scan_d3.0 E -3149.681157793570
  Br      0.960161     -0.026185      2.974164
  C       1.026758      0.493919      1.068750
  C      -0.270606      0.153581      0.327559
  O      -0.624833      1.055127     -0.558296
  H       1.176949      1.566562      1.073163
  H       1.901753      0.007602      0.652283
  H      -1.081329     -0.130050      1.025448
  C      -0.081977     -1.258979     -0.507809
  H      -1.049677     -1.448549     -0.962807
  H       0.673988     -1.048507     -1.257965
  O       0.377646     -2.275129      0.292414
  C      -0.620761     -3.010482      1.054746
  H      -1.274036     -2.278470      1.536947
  C      -1.440740     -3.901993      0.146408
  C       0.133570     -3.787842      2.102872
  H      -2.169971     -4.448188      0.742744
  H      -1.990669     -3.337680     -0.603595
  H      -0.802064     -4.626220     -0.357752
  H      -0.566895     -4.324116      2.740233
  H       0.797840     -4.517118      1.640161
  H       0.725777     -3.123613      2.727491
  C      -1.200587      3.657984      0.817802
  O      -0.647139      4.270495     -0.003774
  O      -1.760979      3.073360      1.655820
24
Coordinates from ORCA-job scan_d3.0 E -3149.681166752822
  Br      0.962234     -0.029319      2.969671
  C       1.021844      0.497444      1.065937
  C      -0.274821      0.152937      0.325097
  O      -0.631152      1.054417     -0.560103
  H       1.165829      1.570888      1.073718
  H       1.898718      0.017571      0.646081
  H      -1.084469     -0.132469      1.023442
  C      -0.082397     -1.260022     -0.508633
  H      -1.049628     -1.451866     -0.963652
  H       0.673240     -1.049111     -1.258891
  O       0.377503     -2.274719      0.293336
  C      -0.620989     -3.011162      1.054965
  H      -1.275643     -2.279289      1.535553
  C      -1.439002     -3.904824      0.146657
  C       0.132991     -3.786183      2.104667
  H      -2.167215     -4.452967      0.742257
  H      -1.989558     -3.341371     -0.603446
  H      -0.798442     -4.627386     -0.357553
  H      -0.567984     -4.322879      2.741142
  H       0.799169     -4.514927      1.643838
  H       0.723103     -3.120794      2.730013
  C      -1.190707      3.657480      0.822271
  O      -0.629836      4.271427      0.006787
  O      -1.760610      3.072633      1.653854
24
Coordinates from ORCA-job scan_d3.0 E -3149.681178388802
  Br      0.952846     -0.022388      2.967726
  C       1.010928      0.503027      1.063668
  C      -0.283784      0.152125      0.321768
  O      -0.643558      1.052859     -0.563161
  H       1.150086      1.577158      1.068849
  H       1.889904      0.025411      0.645856
  H      -1.092961     -0.136610      1.019183
  C      -0.083759     -1.261101     -0.509339
  H      -1.049528     -1.457529     -0.965432
  H       0.672393     -1.049418     -1.258743
  O       0.377409     -2.272777      0.296125
  C      -0.620964     -3.012775      1.054874
  H      -1.278917     -2.282416      1.533417
  C      -1.434643     -3.909190      0.145320
  C       0.132998     -3.784996      2.106261
  H      -2.161691     -4.459974      0.739762
  H      -1.986155     -3.347419     -0.605310
  H      -0.791037     -4.629453     -0.358372
  H      -0.568241     -4.323885      2.740682
  H       0.802617     -4.511720      1.647290
  H       0.719137     -3.118153      2.733736
  C      -1.170134      3.657799      0.828602
  O      -0.619101      4.271998      0.006569
  O      -1.731663      3.074935      1.667674
24
Coordinates from ORCA-job scan_d3.0 E -3149.681186210292
  Br      0.951437     -0.015209      2.964013
  C       1.003948      0.508262      1.059337
  C      -0.291515      0.152741      0.320666
  O      -0.655931      1.051812     -0.564039
  H       1.140374      1.582646      1.061592
  H       1.883025      0.031327      0.640992
  H      -1.098494     -0.137501      1.019774
  C      -0.089324     -1.261035     -0.508119
  H      -1.055038     -1.460583     -0.962998
  H       0.666016     -1.049580     -1.258470
  O       0.374852     -2.270064      0.299195
  C      -0.622534     -3.014950      1.054425
  H      -1.286284     -2.287613      1.529662
  C      -1.427826     -3.915831      0.142100
  C       0.131265     -3.782981      2.109037
  H      -2.155048     -4.468794      0.734348
  H      -1.978673     -3.357630     -0.611709
  H      -0.779064     -4.634079     -0.357812
  H      -0.569782     -4.325906      2.740309
  H       0.806759     -4.506029      1.652915
  H       0.710969     -3.113264      2.739393
  C      -1.152336      3.658895      0.834782
  O      -0.600706      4.272945      0.012992
  O      -1.713913      3.077930      1.674620
24
Coordinates from ORCA-job scan_d3.0 E -3149.681192270364
  Br      0.946593     -0.005469      2.963357
  C       0.999455      0.509533      1.056412
  C      -0.298221      0.154532      0.321361
  O      -0.665552      1.052971     -0.562674
  H       1.139836      1.583291      1.052777
  H       1.876330      0.026823      0.640037
  H      -1.103466     -0.135708      1.022350
  C      -0.098407     -1.259113     -0.507584
  H      -1.065239     -1.459773     -0.959522
  H       0.654896     -1.047768     -1.260151
  O       0.369887     -2.266965      0.299070
  C      -0.625281     -3.017157      1.051781
  H      -1.296857     -2.293837      1.522159
  C      -1.419158     -3.926057      0.137696
  C       0.129162     -3.777634      2.111656
  H      -2.146893     -4.480449      0.728220
  H      -1.968886     -3.374557     -0.621894
  H      -0.763414     -4.642801     -0.355182
  H      -0.570522     -4.325258      2.740388
  H       0.812544     -4.496035      1.659978
  H       0.700532     -3.102404      2.743739
  C      -1.135265      3.662026      0.841676
  O      -0.588762      4.274487      0.015268
  O      -1.691134      3.082829      1.686086
24
Coordinates from ORCA-job scan_d3.0 E -3149.681198761643
  Br      0.948654      0.005427      2.962431
  C       1.000244      0.507703      1.052058
  C      -0.303014      0.157566      0.324638
  O      -0.673863      1.056229     -0.557584
  H       1.149444      1.580102      1.040786
  H       1.871939      0.015001      0.636481
  H      -1.104717     -0.131166      1.030212
  C      -0.111738     -1.255727     -0.506849
  H      -1.082005     -1.455310     -0.951880
  H       0.636592     -1.044790     -1.264610
  O       0.362093     -2.264067      0.296140
  C      -0.630111     -3.019823      1.046859
  H      -1.312526     -2.301441      1.509072
  C      -1.407333     -3.941095      0.131043
  C       0.124064     -3.768212      2.115819
  H      -2.137496     -4.495959      0.718370
  H      -1.952957     -3.399640     -0.638730
  H      -0.741451     -4.656898     -0.349392
  H      -0.574134     -4.321449      2.741236
  H       0.818918     -4.480596      1.672139
  H       0.683257     -3.084289      2.749467
  C      -1.121103      3.667196      0.850545
  O      -0.578531      4.277659      0.020084
  O      -1.672045      3.089087      1.698669
24
Coordinates from ORCA-job scan_d3.0 E -3149.681205796024
  Br      0.972544      0.021898      2.953808
  C       1.006879      0.506126      1.038435
  C      -0.309907      0.163083      0.332014
  O      -0.692183      1.062413     -0.544556
  H       1.168009      1.576566      1.015892
  H       1.868114      0.000302      0.616843
  H      -1.100595     -0.123667      1.050600
  C      -0.137036     -1.249961     -0.504537
  H      -1.115137     -1.446501     -0.933681
  H       0.599569     -1.040029     -1.274095
  O       0.346420     -2.260152      0.290494
  C      -0.641468     -3.025733      1.036687
  H      -1.345911     -2.316537      1.479454
  C      -1.382881     -3.972490      0.117142
  C       0.108361     -3.747920      2.126730
  H      -2.119492     -4.528943      0.695098
  H      -1.916584     -3.450850     -0.674463
  H      -0.695294     -4.685542     -0.336015
  H      -0.588934     -4.311277      2.743987
  H       0.827311     -4.448483      1.702963
  H       0.640724     -3.046168      2.764020
  C      -1.097885      3.676205      0.870893
  O      -0.553950      4.284386      0.039636
  O      -1.648495      3.098781      1.719657
24
Coordinates from ORCA-job scan_d3.0 E -3149.681209048911
  Br      0.972406      0.025798      2.954005
  C       1.006651      0.505354      1.037453
  C      -0.310966      0.162448      0.332251
  O      -0.694988      1.062140     -0.543295
  H       1.169277      1.575608      1.012660
  H       1.867207     -0.002290      0.616747
  H      -1.100455     -0.125497      1.051693
  C      -0.138304     -1.250285     -0.505600
  H      -1.117324     -1.447057     -0.932696
  H       0.596483     -1.039430     -1.276541
  O       0.345958     -2.260765      0.288428
  C      -0.641739     -3.025816      1.035409
  H      -1.347276     -2.316334      1.475944
  C      -1.381191     -3.974614      0.116217
  C       0.107325     -3.744973      2.127779
  H      -2.118917     -4.530815      0.692854
  H      -1.912758     -3.453643     -0.677290
  H      -0.692239     -4.687783     -0.334697
  H      -0.590403     -4.307844      2.745003
  H       0.827872     -4.445526      1.706656
  H       0.637872     -3.041324      2.764558
  C      -1.094956      3.675778      0.874069
  O      -0.552479      4.284451      0.042231
  O      -1.644877      3.097926      1.723168
24
Coordinates from ORCA-job scan_d3.0 E -3149.681212285016
  Br      0.975115      0.028586      2.953950
  C       1.007960      0.504377      1.036410
  C      -0.310513      0.161040      0.332661
  O      -0.697394      1.060894     -0.541517
  H       1.171813      1.574486      1.009750
  H       1.867975     -0.004489      0.616165
  H      -1.098105     -0.129297      1.053082
  C      -0.136812     -1.251362     -0.507215
  H      -1.116537     -1.447919     -0.932924
  H       0.596558     -1.038906     -1.278856
  O       0.346898     -2.262845      0.285587
  C      -0.641331     -3.025611      1.034498
  H      -1.346048     -2.314301      1.473376
  C      -1.381983     -3.974759      0.116327
  C       0.106672     -3.742616      2.128560
  H      -2.120935     -4.530448      0.691610
  H      -1.911159     -3.452090     -0.677700
  H      -0.693257     -4.688437     -0.334223
  H      -0.592325     -4.303050      2.746615
  H       0.827038     -4.444904      1.710038
  H       0.637152     -3.037776      2.764119
  C      -1.096701      3.674350      0.876370
  O      -0.551334      4.284869      0.047741
  O      -1.650565      3.095713      1.722585
24
Coordinates from ORCA-job scan_d3.0 E -3149.681213171890
  Br      0.975259      0.034772      2.953703
  C       1.007384      0.503781      1.034498
  C      -0.313197      0.161821      0.333887
  O      -0.702509      1.062027     -0.538756
  H       1.174824      1.573218      1.003533
  H       1.865314     -0.009573      0.615461
  H      -1.098870     -0.129325      1.056016
  C      -0.141527     -1.250449     -0.507431
  H      -1.122441     -1.446715     -0.930573
  H       0.589849     -1.037386     -1.280774
  O       0.344009     -2.262271      0.283751
  C      -0.643031     -3.027067      1.032332
  H      -1.351751     -2.317550      1.467620
  C      -1.377335     -3.981029      0.114023
  C       0.104705     -3.738534      2.130084
  H      -2.116812     -4.537747      0.687594
  H      -1.904720     -3.461580     -0.683304
  H      -0.684620     -4.693527     -0.332277
  H      -0.593936     -4.300545      2.747140
  H       0.829370     -4.438713      1.715479
  H       0.630167     -3.030133      2.765858
  C      -1.089755      3.676574      0.880465
  O      -0.545651      4.286977      0.050892
  O      -1.642545      3.098482      1.727783
24
Coordinates from ORCA-job scan_d3.0 E -3149.681214488030
  Br      0.967677      0.037602      2.956318
  C       1.004606      0.503333      1.036406
  C      -0.314797      0.161352      0.333518
  O      -0.703835      1.061631     -0.538898
  H       1.173757      1.572427      1.003283
  H       1.862818     -0.012356      0.620797
  H      -1.101381     -0.131522      1.053960
  C      -0.140212     -1.250865     -0.508206
  H      -1.120146     -1.447506     -0.933411
  H       0.592661     -1.036657     -1.279816
  O       0.344894     -2.262491      0.283248
  C      -0.641680     -3.027098      1.032875
  H      -1.348832     -2.317194      1.470061
  C      -1.379005     -3.979366      0.115295
  C       0.107670     -3.739989      2.128522
  H      -2.116809     -4.537010      0.690055
  H      -1.908645     -3.458138     -0.679352
  H      -0.687792     -4.691211     -0.334379
  H      -0.590548     -4.301084      2.746947
  H       0.830326     -4.441177      1.712177
  H       0.635375     -3.032607      2.763563
  C      -1.088357      3.677476      0.878670
  O      -0.543000      4.287996      0.049969
  O      -1.642566      3.099962      1.725406
24
Coordinates from ORCA-job scan_d3.0 E -3149.681216235795
  Br      0.971534      0.039573      2.955798
  C       1.005792      0.502627      1.035203
  C      -0.315734      0.161685      0.335557
  O      -0.707666      1.062248     -0.534717
  H       1.177426      1.571193      0.999226
  H       1.862106     -0.016210      0.619556
  H      -1.100246     -0.133244      1.057491
  C      -0.141622     -1.250588     -0.507397
  H      -1.121617     -1.446405     -0.932853
  H       0.591720     -1.035677     -1.278456
  O       0.343730     -2.262306      0.283317
  C      -0.642485     -3.028076      1.032456
  H      -1.351092     -2.319047      1.468674
  C      -1.377437     -3.981241      0.114071
  C       0.106819     -3.739728      2.128951
  H      -2.114771     -4.540219      0.688184
  H      -1.907296     -3.460464     -0.680741
  H      -0.684767     -4.691925     -0.335191
  H      -0.591479     -4.301368      2.746853
  H       0.830580     -4.440389      1.713700
  H       0.632975     -3.031677      2.764521
  C      -1.088596      3.681170      0.878133
  O      -0.539449      4.291274      0.051600
  O      -1.646246      3.104299      1.723071
24
Coordinates from ORCA-job scan_d3.0 E -3149.681217274854
  Br      0.969384      0.040217      2.956886
  C       1.004781      0.502457      1.036121
  C      -0.316474      0.161353      0.335897
  O      -0.708911      1.062359     -0.533443
  H       1.176451      1.570980      0.999531
  H       1.861237     -0.016785      0.621323
  H      -1.100993     -0.135084      1.057296
  C      -0.141006     -1.250781     -0.507287
  H      -1.120412     -1.446843     -0.933942
  H       0.593246     -1.035355     -1.277371
  O       0.344224     -2.262099      0.283851
  C      -0.641980     -3.028095      1.032764
  H      -1.349995     -2.319092      1.470001
  C      -1.377898     -3.980354      0.114271
  C       0.107770     -3.741032      2.128190
  H      -2.114329     -4.539738      0.689247
  H      -1.909284     -3.459335     -0.679355
  H      -0.685882     -4.690771     -0.336388
  H      -0.590270     -4.302542      2.746478
  H       0.830473     -4.442039      1.711681
  H       0.635219     -3.033857      2.763663
  C      -1.088279      3.683076      0.876496
  O      -0.538961      4.292355      0.049491
  O      -1.645932      3.106513      1.721604
24
Coordinates from ORCA-job scan_d3.0 E -3149.681218707492
  Br      0.970311      0.041189      2.957608
  C       1.004689      0.502056      1.036507
  C      -0.317302      0.160889      0.337401
  O      -0.711879      1.062887     -0.529674
  H       1.176165      1.570602      0.999160
  H       1.860818     -0.017448      0.621446
  H      -1.100493     -0.137905      1.059384
  C      -0.141564     -1.250806     -0.506783
  H      -1.120971     -1.447040     -0.933337
  H       0.592485     -1.034684     -1.276872
  O       0.344144     -2.261908      0.284239
  C      -0.642079     -3.028592      1.032289
  H      -1.350620     -2.320023      1.469385
  C      -1.376956     -3.981224      0.113371
  C       0.107403     -3.741564      2.127961
  H      -2.113016     -4.540874      0.688676
  H      -1.909066     -3.461233     -0.680440
  H      -0.684497     -4.691389     -0.336947
  H      -0.590418     -4.303466      2.746075
  H       0.830336     -4.442269      1.711285
  H       0.634768     -3.034373      2.763515
  C      -1.087301      3.686956      0.875074
  O      -0.538020      4.294732      0.046984
  O      -1.644756      3.110997      1.720701
24
Coordinates from ORCA-job scan_d3.0 E -3149.681219806520
  Br      0.969293      0.041254      2.958985
  C       1.003941      0.501743      1.037790
  C      -0.317971      0.160302      0.338535
  O      -0.713648      1.063077     -0.527186
  H       1.174765      1.570426      1.000674
  H       1.860362     -0.017222      0.622686
  H      -1.100621     -0.139996      1.060536
  C      -0.141952     -1.250831     -0.506457
  H      -1.121477     -1.447444     -0.932585
  H       0.591490     -1.034116     -1.276944
  O       0.344333     -2.261992      0.284246
  C      -0.641709     -3.029059      1.031955
  H      -1.350191     -2.320697      1.469514
  C      -1.376742     -3.981576      0.113031
  C       0.107977     -3.742396      2.127298
  H      -2.112539     -4.541219      0.688708
  H      -1.909399     -3.461930     -0.680642
  H      -0.684417     -4.691726     -0.337506
  H      -0.589454     -4.304595      2.745526
  H       0.830850     -4.442822      1.710002
  H       0.635646     -3.035290      2.762715
  C      -1.086058      3.690034      0.872959
  O      -0.536587      4.296538      0.044078
  O      -1.643713      3.115043      1.719087
