17
styrene_oxide
C      2.709316    -0.410870    -0.458670
O      2.557137     1.004288    -0.321735
C      1.747351     0.184815     0.542721
C      0.265909     0.132645     0.279575
C     -0.448784    -1.071733     0.396162
C     -1.826089    -1.126826     0.165266
C     -2.519417     0.027954    -0.185621
C     -1.836306     1.234729    -0.304155
C     -0.459360     1.283235    -0.071616
H      3.624471    -0.854168    -0.087850
H      2.316878    -0.868688    -1.358140
H      2.046653     0.158043     1.586425
H      0.076352    -1.983824     0.671874
H     -2.355394    -2.071260     0.260327
H     -3.590227    -0.011957    -0.366343
H     -2.371308     2.140131    -0.578226
H      0.062821     2.233485    -0.169996
