20
styrene_carbonate
O     -3.945271     1.599078    -1.180906
C     -3.092931     0.887242    -0.678600
O     -3.295972     0.099196     0.418502
C     -2.020382    -0.369477     0.818080
C     -1.231106    -0.326606    -0.459991
C      0.253421    -0.170731    -0.233068
C      1.014755    -1.289113     0.145207
C      2.385940    -1.171428     0.380107
C      3.013761     0.063937     0.241661
C      2.272029     1.181853    -0.132542
C      0.900469     1.066660    -0.367948
O     -1.812990     0.777428    -1.138341
H     -2.093594    -1.381044     1.229024
H     -1.635060     0.298258     1.597528
H     -1.414078    -1.213108    -1.080998
H      0.546978    -2.265490     0.256086
H      2.965947    -2.044409     0.669086
H      4.081668     0.155837     0.422413
H      2.761623     2.146266    -0.243995
H      0.344793     1.955650    -0.661306
