111
TBA2ZnBr4_salt
Zn     0.000000     0.000000     0.000000
Br     2.400000     0.000000     0.000000
Br     1.200000     2.078461     0.000000
Br    -1.200000     2.078461     0.000000
Br    -2.400000     0.000000     0.000000
C     -1.200000    -2.078461     0.000000
C     -2.127276    -1.638261     1.121797
C     -1.491258    -0.536329     1.976812
C     -2.433153    -0.130844     3.108605
N     -2.002444     1.103641     3.939169
C     -1.744293     2.356169     3.043975
C     -2.938959     2.762850     2.174863
C     -2.581426     3.975818     1.310556
C     -3.750696     4.402517     0.437261
C     -0.748454     0.809917     4.817873
C      0.615811     0.866552     4.115661
C      1.416968     2.146162     4.391544
C      1.929467     2.240345     5.822028
C     -3.192155     1.485522     4.905094
C     -3.366436     0.659889     6.190997
C     -3.921631    -0.761223     6.095659
C     -5.245692    -0.861255     5.355916
H     -0.964155    -1.241567    -0.665063
H     -1.673810    -2.863847    -0.597113
H     -0.261321    -2.475145     0.399776
H     -3.067552    -1.277191     0.688893
H     -2.369359    -2.503969     1.749383
H     -0.557583    -0.929316     2.389755
H     -1.250568     0.310193     1.327960
H     -2.520219    -0.968798     3.799495
H     -3.430866     0.083780     2.712182
H     -1.472460     3.172815     3.722935
H     -0.883779     2.147100     2.405728
H     -3.239190     1.941568     1.516456
H     -3.803018     3.021910     2.794711
H     -1.723895     3.737202     0.670584
H     -2.285794     4.814989     1.951021
H     -4.050655     3.595222    -0.238480
H     -3.473031     5.269068    -0.170911
H     -4.616023     4.679247     1.047942
H     -0.900656    -0.192220     5.233436
H     -0.776269     1.535577     5.636022
H      0.542222     0.741843     3.035358
H      1.213653     0.016295     4.469383
H      0.822985     3.034683     4.156632
H      2.283337     2.160601     3.718996
H      2.538732     1.367772     6.078326
H      2.553567     3.132353     5.938002
H      1.111184     2.312191     6.543692
H     -4.111318     1.481238     4.311855
H     -2.997757     2.521490     5.209857
H     -4.070370     1.225446     6.818430
H     -2.441202     0.636265     6.775530
H     -3.188286    -1.442465     5.658287
H     -4.079319    -1.126359     7.118874
H     -5.137953    -0.620820     4.295390
H     -5.989264    -0.185146     5.789697
H     -5.637079    -1.881417     5.424643
C      1.200000    -2.078461     0.000000
C      0.272724    -1.638261     1.121797
C      0.908742    -0.536329     1.976812
C     -0.033153    -0.130844     3.108605
N      0.397556     1.103641     3.939169
C      0.655707     2.356169     3.043975
C     -0.538959     2.762850     2.174863
C     -0.181426     3.975818     1.310556
C     -1.350696     4.402517     0.437261
C      1.651546     0.809917     4.817873
C      3.015811     0.866552     4.115661
C      3.816968     2.146162     4.391544
C      4.329467     2.240345     5.822028
C     -0.792155     1.485522     4.905094
C     -0.966436     0.659889     6.190997
C     -1.521631    -0.761223     6.095659
C     -2.845692    -0.861255     5.355916
H      1.435845    -1.241567    -0.665063
H      0.726190    -2.863847    -0.597113
H      2.138679    -2.475145     0.399776
H     -0.667552    -1.277191     0.688893
H      0.030641    -2.503969     1.749383
H      1.842417    -0.929316     2.389755
H      1.149432     0.310193     1.327960
H     -0.120219    -0.968798     3.799495
H     -1.030866     0.083780     2.712182
H      0.927540     3.172815     3.722935
H      1.516221     2.147100     2.405728
H     -0.839190     1.941568     1.516456
H     -1.403018     3.021910     2.794711
H      0.676105     3.737202     0.670584
H      0.114206     4.814989     1.951021
H     -1.650655     3.595222    -0.238480
H     -1.073031     5.269068    -0.170911
H     -2.216023     4.679247     1.047942
H      1.499344    -0.192220     5.233436
H      1.623731     1.535577     5.636022
H      2.942222     0.741843     3.035358
H      3.613653     0.016295     4.469383
H      3.222985     3.034683     4.156632
H      4.683337     2.160601     3.718996
H      4.938732     1.367772     6.078326
H      4.953567     3.132353     5.938002
H      3.511184     2.312191     6.543692
H     -1.711318     1.481238     4.311855
H     -0.597757     2.521490     5.209857
H     -1.670370     1.225446     6.818430
H     -0.041202     0.636265     6.775530
H     -0.788286    -1.442465     5.658287
H     -1.679319    -1.126359     7.118874
H     -2.737953    -0.620820     4.295390
H     -3.589264    -0.185146     5.789697
H     -3.237079    -1.881417     5.424643
