77
TBA_hex_cation
C     -2.531204     6.945967     0.275596
C     -3.529130     5.831714     0.550756
C     -2.949913     4.429624     0.344429
C     -1.830368     4.089388     1.332103
C     -1.401606     2.616380     1.278114
C     -0.694802     2.260692    -0.035674
N     -0.311186     0.740796    -0.173666
C      0.393602     0.216466     1.101549
C      1.689599     0.956959     1.447296
C      2.256181     0.538971     2.811312
C      2.684293    -0.930246     2.864731
C      3.444553    -1.290004     4.143765
C      2.600156    -1.173487     5.403346
C     -1.637038    -0.034766    -0.480029
C     -1.660050    -1.494581    -0.017789
C     -2.928590    -2.195143    -0.517827
C     -3.079657    -3.626900     0.004504
C     -2.005828    -4.581700    -0.519063
C     -2.268566    -6.011061    -0.069752
C      0.626163     0.681559    -1.422804
C      1.092834    -0.720060    -1.807496
C      2.107998    -0.652077    -2.955185
C      2.571599    -2.051299    -3.367196
C      3.664132    -2.036902    -4.438285
C      3.196448    -1.483523    -5.775458
H     -2.107953     6.855245    -0.729729
H     -3.026332     7.919678     0.348057
H     -1.710847     6.937341     0.999181
H     -4.385389     5.956219    -0.122891
H     -3.913618     5.930426     1.572559
H     -2.586929     4.341905    -0.685610
H     -3.763488     3.702746     0.458206
H     -0.956628     4.725551     1.150170
H     -2.175245     4.306306     2.350755
H     -0.723643     2.453459     2.122547
H     -2.277502     1.985513     1.455098
H     -1.322726     2.487360    -0.904278
H      0.230627     2.839423    -0.131673
H      0.616707    -0.839930     0.937875
H     -0.332227     0.278190     1.918903
H      2.452072     0.770673     0.683107
H      1.528210     2.038410     1.478601
H      1.508844     0.743520     3.586536
H      3.123502     1.174115     3.029842
H      1.808305    -1.582693     2.774438
H      3.333133    -1.147488     2.007376
H      3.800541    -2.323547     4.056981
H      4.333698    -0.656225     4.240638
H      1.688765    -1.774244     5.322627
H      2.315093    -0.135942     5.600515
H      3.166288    -1.531541     6.269258
H     -2.453549     0.495122     0.017249
H     -1.810419     0.048137    -1.559235
H     -1.648335    -1.538688     1.077431
H     -0.784180    -2.037556    -0.375996
H     -2.939531    -2.201843    -1.614625
H     -3.805660    -1.619662    -0.196241
H     -3.068374    -3.621718     1.101257
H     -4.066693    -3.997930    -0.298677
H     -1.978836    -4.548578    -1.614289
H     -1.017106    -4.278958    -0.158454
H     -1.488244    -6.677378    -0.450650
H     -3.232950    -6.369379    -0.443778
H     -2.274431    -6.083803     1.022508
H      1.482217     1.331979    -1.214444
H      0.068238     1.131660    -2.253679
H      1.558786    -1.229687    -0.959205
H      0.242280    -1.322489    -2.140969
H      1.649442    -0.141246    -3.809351
H      2.973832    -0.055242    -2.643851
H      1.714457    -2.635285    -3.724064
H      2.963829    -2.573107    -2.485415
H      4.525638    -1.458321    -4.085163
H      4.014056    -3.064936    -4.590569
H      2.948625    -0.420423    -5.705458
H      2.315090    -2.022250    -6.137406
H      3.988942    -1.589653    -6.523291
