28
TBD
C     -2.833094     0.583012     1.372079
N     -1.666436     0.159151     0.600614
C     -1.958628    -0.873119    -0.393617
C     -0.987019    -2.031462    -0.274673
C      0.435847    -1.637117    -0.645816
N      0.987483    -0.648702     0.288400
C      2.455593    -0.611351     0.164066
C      2.815934     0.797789     0.575909
C      1.698855     1.614988    -0.041932
N      0.560941     0.691261    -0.065721
C     -0.725788     1.118113     0.270907
N     -1.100441     2.365335     0.252330
H     -3.344669    -0.285863     1.800656
H     -3.544225     1.129225     0.742866
H     -2.536191     1.221579     2.211533
H     -1.939269    -0.447500    -1.405243
H     -2.972569    -1.268028    -0.250795
H     -1.311931    -2.836375    -0.945115
H     -1.009117    -2.440641     0.743615
H      0.484172    -1.285225    -1.685020
H      1.037540    -2.554549    -0.596288
H      2.783937    -0.779995    -0.870483
H      2.930727    -1.358661     0.807042
H      3.804223     1.108153     0.225242
H      2.792782     0.891338     1.668843
H      1.943878     1.912728    -1.067087
H      1.530968     2.514216     0.559185
H     -0.333505     2.951702    -0.063912
