48
TBP_cation
C      0.807882     5.101218     0.010009
C      1.479233     3.738422     0.068684
C      0.463074     2.624627     0.314706
C      1.134344     1.256417     0.372668
P      0.038964    -0.111474     0.668579
C     -0.857350     0.154191     2.181692
C     -0.014283     0.440114     3.411513
O     -0.872880     0.642199     4.524785
C      0.974904    -1.610272     0.824158
C      2.115925    -1.865255    -0.155339
C      1.656532    -2.096484    -1.591370
C      2.813220    -2.526524    -2.481452
C     -1.150912    -0.197971    -0.649456
C     -2.058887    -1.422594    -0.631717
C     -3.081616    -1.379981    -1.765891
C     -3.982769    -2.604321    -1.748837
H      1.552755     5.883426    -0.166651
H      0.073395     5.142115    -0.800669
H      0.294964     5.326639     0.950465
H      2.009385     3.557928    -0.873664
H      2.229429     3.741493     0.867981
H     -0.289447     2.628387    -0.481775
H     -0.071157     2.813047     1.252322
H      1.903609     1.261797     1.153176
H      1.655539     1.081053    -0.575325
H     -1.484861    -0.722151     2.383182
H     -1.563662     0.980898     2.038942
H      0.652890    -0.397139     3.632974
H      0.591586     1.339397     3.270342
H     -0.305541     0.823283     5.293458
H      0.293721    -2.467987     0.822531
H      1.426353    -1.602030     1.822874
H      2.666506    -2.749874     0.188921
H      2.821450    -1.027353    -0.126810
H      1.232788    -1.176576    -2.001751
H      0.876939    -2.865622    -1.620255
H      3.249223    -3.467746    -2.131710
H      2.465712    -2.674752    -3.508703
H      3.600884    -1.766382    -2.495267
H     -1.775767     0.701356    -0.595144
H     -0.634459    -0.142887    -1.612129
H     -1.453275    -2.330686    -0.719330
H     -2.576432    -1.480743     0.332288
H     -2.565061    -1.327301    -2.731354
H     -3.698709    -0.478262    -1.677963
H     -4.706762    -2.553541    -2.568071
H     -4.538360    -2.669383    -0.807868
H     -3.399015    -3.522719    -1.867753
