74
TDDP_cation
C      9.166458    -2.140062     1.918684
C      8.255780    -1.355217     0.986617
C      7.836054    -0.023145     1.609245
C      7.010756     0.856704     0.665842
C      5.643944     0.260755     0.317414
C      4.817910     1.234707    -0.527423
C      3.489350     0.647000    -1.015527
C      2.496297     0.370198     0.116650
C      1.162155    -0.207362    -0.372035
C      0.297172     0.808155    -1.115266
C     -0.992439     0.229642    -1.697771
P     -2.251715    -0.368100    -0.590567
C     -3.824374    -0.424749    -1.433067
C     -4.096350     0.662885    -2.468119
C     -5.495309     0.585820    -3.083628
C     -6.607719     0.961154    -2.116931
C     -2.335344     0.632667     0.872761
C     -2.669745     2.109323     0.679518
C     -4.155787     2.402508     0.889714
C     -4.482094     3.859207     0.601918
C     -1.843755    -2.052289    -0.159136
C     -2.435064    -2.638524     1.118668
C     -3.952575    -2.794972     1.075678
C     -4.468124    -3.541387     2.296982
H      8.662888    -2.359734     2.865532
H      9.452462    -3.090462     1.457269
H     10.081372    -1.580154     2.137250
H      7.374729    -1.965999     0.763036
H      8.778731    -1.176334     0.040123
H      8.734902     0.535858     1.898076
H      7.269848    -0.206626     2.530558
H      6.863345     1.830645     1.149064
H      7.579271     1.043329    -0.253382
H      5.111530     0.022003     1.244417
H      5.772994    -0.674667    -0.237930
H      5.403954     1.527624    -1.407605
H      4.626428     2.151505     0.043383
H      3.053236     1.360911    -1.722585
H      3.679965    -0.276469    -1.575488
H      2.314465     1.288402     0.687943
H      2.933152    -0.355267     0.812154
H      0.619285    -0.555294     0.512623
H      1.348546    -1.082107    -1.005892
H      0.866479     1.236084    -1.947603
H      0.057577     1.638852    -0.442742
H     -0.745941    -0.566708    -2.409597
H     -1.430711     1.037267    -2.292942
H     -4.609362    -0.416146    -0.673256
H     -3.901445    -1.393716    -1.940280
H     -3.933432     1.653755    -2.033380
H     -3.369836     0.558218    -3.282050
H     -5.676386    -0.420701    -3.478189
H     -5.535876     1.272422    -3.937820
H     -7.571413     0.960818    -2.636445
H     -6.447958     1.962461    -1.704844
H     -6.679125     0.252075    -1.287503
H     -3.041028     0.188611     1.582772
H     -1.354271     0.570882     1.357172
H     -2.101344     2.696850     1.411331
H     -2.352671     2.443803    -0.313408
H     -4.433690     2.171524     1.924914
H     -4.769275     1.765952     0.247409
H     -5.546802     4.049185     0.769895
H     -4.252086     4.113882    -0.437627
H     -3.910342     4.526301     1.254818
H     -0.757788    -2.131394    -0.067295
H     -2.103919    -2.698232    -1.006215
H     -2.152061    -2.017710     1.975971
H     -1.980308    -3.623721     1.282158
H     -4.250614    -3.336530     0.170847
H     -4.431616    -1.812610     1.046234
H     -4.208883    -3.010887     3.218816
H     -5.557877    -3.633221     2.252574
H     -4.044577    -4.549450     2.349126
