29
TEA_cation
C      0.109574     2.303074    -1.141580
C     -0.811362     1.390187    -0.354971
N     -0.151280     0.091112     0.195007
C      0.189597    -0.856665    -0.976791
C      0.619821    -2.247460    -0.533199
C      1.081133     0.427928     1.089280
C      2.412384     0.565958     0.364068
C     -1.194551    -0.564141     1.167976
C     -2.511897    -0.949304     0.511358
H      0.625129     1.783689    -1.952747
H     -0.481252     3.105661    -1.597238
H      0.842423     2.790734    -0.493467
H     -1.636621     1.079830    -1.003551
H     -1.224209     1.931252     0.504177
H     -0.696175    -0.922865    -1.617439
H      0.979835    -0.385553    -1.567490
H      0.990888    -2.806967    -1.398592
H      1.417356    -2.226160     0.213270
H     -0.217059    -2.819928    -0.123073
H      1.177658    -0.379217     1.824641
H      0.833783     1.346102     1.634087
H      2.397379     1.282815    -0.455985
H      2.763696    -0.390964    -0.031233
H      3.173401     0.906377     1.075154
H     -1.372429     0.160863     1.971501
H     -0.721384    -1.446044     1.612280
H     -2.379595    -1.642081    -0.322973
H     -3.147939    -1.451325     1.248772
H     -3.068307    -0.076910     0.158760
