33
TEAH_cation
O     -2.834227     1.306498    -0.281890
C     -1.735298     1.855014    -0.995317
C     -0.662635     0.794652    -1.315542
N      0.028119     0.125889    -0.082331
C      1.039071    -0.926558    -0.624686
C      2.332479    -0.340090    -1.218648
O      3.020333    -1.320293    -1.985003
C      0.720367     1.223483     0.779358
C      1.502854     0.706793     2.003013
O      0.612783     0.294251     3.033427
C     -1.018943    -0.625271     0.827067
C     -1.949273    -1.615050     0.100017
O     -1.213198    -2.719394    -0.421085
H     -3.521307     1.999270    -0.225198
H     -1.324545     2.693303    -0.426923
H     -2.119510     2.255568    -1.939801
H      0.129385     1.270258    -1.901303
H     -1.093828    -0.013228    -1.914559
H      1.288559    -1.612674     0.192353
H      0.529774    -1.502153    -1.403476
H      2.122860     0.490527    -1.895959
H      3.010034     0.024759    -0.441628
H      3.470680    -1.944006    -1.386778
H      1.383432     1.778386     0.108238
H     -0.072367     1.892575     1.127304
H      2.168580    -0.123815     1.759165
H      2.109480     1.526147     2.402819
H      1.144544     0.119932     3.834138
H     -0.429661    -1.200124     1.547454
H     -1.590249     0.134858     1.366241
H     -2.668006    -2.012816     0.824600
H     -2.515104    -1.159297    -0.714034
H     -1.865183    -3.377396    -0.731032
