21
tetramethylguanidine
C      2.293968     0.906689     0.777338
N      1.134327     0.063636     0.483728
C      1.484120    -1.331080     0.219562
C      0.080937     0.638245    -0.196302
N      0.153515     1.845806    -0.654697
N     -1.037507    -0.153069    -0.328647
C     -1.921945     0.002047    -1.478108
C     -1.741976    -0.531196     0.898751
H      2.962017     0.413941     1.492184
H      2.861455     1.119346    -0.135116
H      1.985185     1.853085     1.234904
H      2.234442    -1.686893     0.934175
H      1.895419    -1.434973    -0.790311
H      0.622829    -1.999336     0.313316
H     -0.736204     2.089690    -1.083887
H     -1.342819     0.140336    -2.397531
H     -2.535335    -0.895162    -1.613780
H     -2.589855     0.860175    -1.347944
H     -2.399186    -1.387983     0.715534
H     -1.051215    -0.817673     1.698359
H     -2.352170     0.304368     1.258473
