31
tetraethylene_glycol
O     -6.826675     0.356006    -0.406278
C     -5.678302     0.582530     0.402149
C     -4.398534     0.399361    -0.406398
O     -3.271738     0.695621     0.415365
C     -2.043417     0.500723    -0.285925
C     -0.875508     0.879599     0.622677
O      0.383518     0.752332    -0.037247
C      0.876380    -0.592264    -0.053323
C      2.291969    -0.604077    -0.633257
O      3.210280    -0.113939     0.350602
C      4.525682     0.087051    -0.160146
C      5.304822    -1.219603    -0.296388
O      6.649002    -0.973461    -0.691853
H     -6.899075     1.105674    -1.021893
H     -5.733792     1.589244     0.830416
H     -5.699299    -0.121859     1.240262
H     -4.410542     1.065503    -1.277295
H     -4.339254    -0.631532    -0.775493
H     -1.963686    -0.546839    -0.595747
H     -2.022269     1.119874    -1.190726
H     -0.892745     0.302903     1.555488
H     -0.984082     1.929943     0.916555
H      0.223064    -1.201921    -0.684815
H      0.885228    -0.992022     0.966836
H      2.336961     0.028388    -1.526897
H      2.566373    -1.631445    -0.891329
H      5.050497     0.739566     0.546965
H      4.499782     0.634258    -1.110256
H      5.305207    -1.775057     0.647537
H      4.847519    -1.868319    -1.049152
H      7.082635    -0.496240     0.037065
