13
THF
C      0.695401    -0.728053     0.332254
C     -0.747900    -0.744553    -0.101601
C     -1.131036     0.712971     0.035279
O      0.052706     1.478399    -0.231560
C      1.177407     0.587713    -0.239004
H      0.753141    -0.704173     1.426924
H      1.272539    -1.585505    -0.023251
H     -0.815755    -1.052150    -1.151832
H     -1.379338    -1.410187     0.492464
H     -1.454598     0.943636     1.055894
H     -1.924588     1.006447    -0.657562
H      1.505087     0.472609    -1.277720
H      1.996935     1.022845     0.339715
