89
THPA_cation
C      5.491280    -3.580990     4.515363
C      4.383196    -3.270291     3.520400
C      3.468446    -2.158180     4.035192
C      2.264408    -1.887299     3.126889
C      2.649743    -1.286674     1.772210
C      1.447132    -1.028809     0.850777
C      0.510136     0.049081     1.396294
N     -0.648120     0.492942     0.463605
C     -1.370871    -0.721302    -0.206303
C     -0.791893    -1.189490    -1.538631
C     -1.508653    -2.452201    -2.030661
C     -1.119944    -2.853260    -3.458608
C      0.353421    -3.243267    -3.605201
C      0.732016    -3.649724    -5.031982
C      0.070986    -4.938895    -5.494537
C     -0.288414     1.612187    -0.558842
C      1.089787     1.507257    -1.210555
C      1.404613     2.707336    -2.116656
C      0.534021     2.843080    -3.369635
C      0.588446     1.667139    -4.350420
C      1.980994     1.283307    -4.855149
C      2.683406     2.403505    -5.605985
C     -1.778341     1.109649     1.405262
C     -1.264724     2.131727     2.429788
C     -2.408165     2.890183     3.118179
C     -3.323170     1.983064     3.945363
C     -4.329693     2.757911     4.801827
C     -5.352613     3.539958     3.976964
C     -6.394317     4.200254     4.867329
H      6.136540    -4.375616     4.127834
H      6.111999    -2.698206     4.699099
H      5.077703    -3.916109     5.471912
H      4.840505    -2.979527     2.568975
H      3.798967    -4.179589     3.338275
H      3.090263    -2.438979     5.026234
H      4.044747    -1.234483     4.168246
H      1.600661    -1.196010     3.658157
H      1.701101    -2.815892     2.975516
H      3.325205    -1.971041     1.246778
H      3.201872    -0.351326     1.924332
H      0.908032    -1.973029     0.716753
H      1.853251    -0.746270    -0.121171
H      0.029080    -0.348262     2.296733
H      1.064351     0.954232     1.666877
H     -2.407696    -0.408085    -0.383320
H     -1.389411    -1.526230     0.537648
H     -0.923249    -0.408689    -2.292302
H      0.272349    -1.403232    -1.457252
H     -2.592630    -2.283985    -2.008523
H     -1.302971    -3.283407    -1.345238
H     -1.755174    -3.697293    -3.749697
H     -1.352793    -2.029975    -4.144924
H      0.592082    -4.059820    -2.913253
H      0.987742    -2.394179    -3.326843
H      1.819624    -3.783303    -5.076205
H      0.484190    -2.840750    -5.729051
H     -1.012338    -4.823469    -5.591003
H      0.460502    -5.228750    -6.475806
H      0.272165    -5.756830    -4.795602
H     -1.095648     1.626541    -1.298563
H     -0.331958     2.565092    -0.026701
H      1.862749     1.498695    -0.434723
H      1.200082     0.588079    -1.786954
H      1.308294     3.629040    -1.528596
H      2.459089     2.653234    -2.411932
H      0.830511     3.759156    -3.895109
H     -0.509883     3.000980    -3.074168
H     -0.044722     1.911487    -5.212886
H      0.134050     0.785439    -3.888404
H      1.877256     0.424380    -5.529463
H      2.610318     0.946952    -4.024109
H      2.910764     3.247114    -4.947794
H      2.067884     2.766889    -6.434931
H      3.629931     2.041883    -6.020448
H     -2.522759     1.557722     0.736046
H     -2.234934     0.259251     1.925703
H     -0.669827     1.631927     3.202625
H     -0.609618     2.873850     1.965492
H     -1.967868     3.651562     3.773766
H     -2.990408     3.423197     2.357948
H     -3.866946     1.294605     3.288373
H     -2.708873     1.366920     4.613446
H     -3.793716     3.440853     5.472186
H     -4.858358     2.039790     5.441075
H     -5.856125     2.867864     3.272602
H     -4.853315     4.316434     3.387718
H     -6.945917     3.453197     5.446964
H     -7.114193     4.757135     4.259365
H     -5.925648     4.900638     5.566019
