17
TMA_cation
C      0.729764    -1.079994    -0.785753
N     -0.000000     0.000000    -0.000000
C     -1.387298    -0.498171     0.378921
C      0.784365     0.326156     1.262832
C     -0.126832     1.252010    -0.856000
H      0.811697    -1.970944    -0.156155
H      0.152722    -1.301375    -1.688477
H      1.723253    -0.705225    -1.049243
H     -1.896437     0.289556     0.942090
H     -1.935928    -0.727358    -0.539434
H     -1.276954    -1.396930     0.992887
H      0.865564    -0.583665     1.864937
H      0.246077     1.102822     1.814133
H      1.777121     0.682054     0.971851
H     -0.692377     0.999335    -1.757782
H      0.878154     1.595480    -1.118544
H     -0.652888     2.016251    -0.276262
