15
toluene
C      2.211700    -0.171713     0.113676
C      0.720118    -0.051754     0.012499
C      0.094161     1.187674     0.194332
C     -1.296368     1.293530     0.131367
C     -2.072937     0.160394    -0.103323
C     -1.459960    -1.079891    -0.270926
C     -0.069519    -1.187025    -0.208178
H      2.501829    -0.367442     1.150511
H      2.701334     0.747902    -0.223647
H      2.581792    -0.986423    -0.517593
H      0.686902     2.079233     0.385509
H     -1.773500     2.260249     0.268418
H     -3.155329     0.243141    -0.151361
H     -2.064751    -1.965285    -0.447808
H      0.394528    -2.162590    -0.333477
