41
TPrA_cation
C     -1.361068    -2.030744    -3.375088
C     -0.564363    -1.780608    -2.100778
C     -0.836535    -0.370496    -1.566239
N     -0.029714    -0.004821    -0.266087
C     -0.521285    -0.936822     0.872559
C      0.046155    -0.627055     2.254436
C     -0.620573    -1.496170     3.314160
C      1.484051    -0.234235    -0.576264
C      2.463867     0.636458     0.213263
C      3.899612     0.196032    -0.042549
C     -0.296285     1.499792     0.032655
C     -1.764074     1.844447     0.295698
C     -1.910727     3.317184     0.657741
H     -1.082909    -1.317608    -4.157703
H     -2.436115    -1.938001    -3.190371
H     -1.167047    -3.040257    -3.750998
H      0.495628    -1.925968    -2.328869
H     -0.850947    -2.540453    -1.367827
H     -1.899335    -0.277124    -1.322768
H     -0.576466     0.384679    -2.317456
H     -1.615227    -0.882067     0.880588
H     -0.241812    -1.958577     0.596014
H      1.118235    -0.838845     2.280614
H     -0.102926     0.419769     2.531198
H     -1.697123    -1.302548     3.359299
H     -0.195775    -1.283473     4.300256
H     -0.470155    -2.559506     3.101546
H      1.621519    -0.012779    -1.641579
H      1.683894    -1.299120    -0.413639
H      2.279342     0.600562     1.287900
H      2.374766     1.683586    -0.097349
H      4.057640    -0.835522     0.288099
H      4.145839     0.258585    -1.107405
H      4.596126     0.838513     0.505321
H      0.302688     1.776752     0.903974
H      0.077729     2.059505    -0.833248
H     -2.169735     1.248392     1.118416
H     -2.379141     1.654458    -0.588657
H     -1.547471     3.958126    -0.151994
H     -1.347510     3.555994     1.565612
H     -2.962771     3.559966     0.837522
