34
Triarylstibonium_cation
C     -2.510972    -3.994755     0.706335
C     -2.745799    -2.745772     1.269292
C     -2.022492    -1.661070     0.795520
C     -1.081923    -1.774781    -0.210052
Sb     0.025811    -0.133310    -0.940662
C      2.052547    -0.127507    -0.244241
C      2.840578    -1.228615    -0.490686
C      4.148289    -1.181607    -0.021056
C      4.652924    -0.094376     0.661323
C      3.841717     1.012025     0.902319
C      2.548017     0.957278     0.433858
C     -0.901965     1.731549    -0.663105
C     -1.286237     2.472992    -1.759934
C     -1.898229     3.700686    -1.672009
C     -2.148132     4.232863    -0.428369
C     -1.778876     3.522161     0.694607
C     -1.161304     2.282621     0.580466
C     -0.882448    -3.035232    -0.739238
C     -1.576172    -4.143877    -0.302295
H     -3.082855    -4.859757     1.079030
H     -3.480707    -2.669010     2.051898
H     -2.211275    -0.694192     1.238590
H      2.451108    -2.085954    -1.025893
H      4.822884    -2.011294    -0.179078
H      5.675639    -0.049867     1.032217
H      4.182581     1.886829     1.429069
H      1.897782     1.792320     0.602746
H     -1.110531     2.095409    -2.767195
H     -2.182117     4.246132    -2.573260
H     -2.629344     5.197983    -0.367238
H     -1.986689     3.963340     1.674583
H     -0.867014     1.715859     1.462131
H     -0.167390    -3.177191    -1.517894
H     -1.427404    -5.141878    -0.711780
