15
triazine_melamine
N     -1.245711    -2.176303    -0.910403
C     -0.588562    -1.042267    -0.473561
N      0.655851    -1.186486    -0.050990
C      1.228771    -0.073993     0.375331
N      2.536969    -0.160221     0.813800
N      0.659689     1.119124     0.390973
C     -0.584921     1.145389    -0.054207
N     -1.238156     2.362682    -0.040321
N     -1.265923     0.093301    -0.475732
H     -0.834489    -3.002113    -0.498231
H     -2.245565    -2.060693    -0.824301
H      2.991097    -0.957129     0.388907
H      2.993915     0.735857     0.713438
H     -0.824536     2.976213     0.647756
H     -2.238429     2.226640    -0.002459
