22
triethylamine
C      1.945815    -0.845849    -0.412599
C      0.853068    -0.355886     0.527833
N     -0.296141     0.126706    -0.257900
C     -0.556599     1.559039    -0.032908
C      0.540670     2.451711    -0.605634
C     -1.514990    -0.656740     0.007910
C     -1.421494    -2.084768    -0.522062
H      1.592844    -1.671464    -1.039218
H      2.803649    -1.206260     0.164363
H      2.297133    -0.043151    -1.069205
H      1.267127     0.424018     1.178563
H      0.577214    -1.171059     1.207940
H     -0.698406     1.772117     1.034098
H     -1.486320     1.846038    -0.540502
H      0.693373     2.251036    -1.671430
H      1.495613     2.316203    -0.089486
H      0.256400     3.504076    -0.501144
H     -2.367646    -0.191568    -0.502967
H     -1.753027    -0.666137     1.079014
H     -2.381455    -2.594585    -0.388797
H     -0.661815    -2.671717     0.002406
H     -1.185013    -2.091760    -1.591425
