20
Trimethylphenylammonium
C     -2.893095    -0.183102    -0.237882
C     -2.176552    -1.187884     0.396996
C     -0.791089    -1.062948     0.572213
C     -0.071490     0.056452     0.113924
N      1.310944     0.183802     0.305902
C      2.037327     1.202458    -0.449788
C      2.084569    -1.001106     0.671768
C     -0.836612     1.060451    -0.508555
C     -2.222280     0.945125    -0.688662
H     -3.966652    -0.275020    -0.373258
H     -2.688691    -2.072744     0.765082
H     -0.290412    -1.876478     1.087455
H      3.107214     1.185128    -0.212943
H      1.935543     1.040764    -1.528638
H      1.691193     2.209347    -0.193014
H      1.768519    -1.397324     1.642689
H      3.148983    -0.763074     0.778636
H      1.996046    -1.781445    -0.092208
H     -0.372920     1.972201    -0.871444
H     -2.770546     1.745398    -1.178273
