34
triphenylphosphine
C     -1.987209    -3.734578    -0.788119
C     -2.368805    -2.657891     0.007209
C     -1.718415    -1.425585    -0.116280
C     -0.673887    -1.248879    -1.035719
P      0.232530     0.314862    -1.272032
C      1.734018     0.114591    -0.258058
C      1.925089    -0.913978     0.676375
C      3.107878    -1.003154     1.417923
C      4.121152    -0.066256     1.236501
C      3.953855     0.960840     0.313099
C      2.771932     1.048977    -0.427790
C     -0.757843     1.543602    -0.359850
C     -1.867456     2.110213    -1.013195
C     -2.674186     3.059286    -0.379099
C     -2.384203     3.461962     0.920650
C     -1.289183     2.916120     1.584278
C     -0.482553     1.965973     0.949137
C     -0.306250    -2.349121    -1.831620
C     -0.955300    -3.580871    -1.708512
H     -2.494130    -4.690857    -0.691237
H     -3.175175    -2.772403     0.727158
H     -2.045217    -0.613032     0.527478
H      1.158194    -1.663748     0.852962
H      3.233993    -1.808226     2.137385
H      5.039529    -0.137622     1.812968
H      4.741352     1.695241     0.165942
H      2.667356     1.863746    -1.142502
H     -2.118382     1.812464    -2.030042
H     -3.527197     3.482062    -0.903296
H     -3.009198     4.200462     1.415448
H     -1.057631     3.228100     2.599523
H      0.359477     1.562400     1.505540
H      0.498752    -2.257466    -2.559060
H     -0.652886    -4.417232    -2.333168
