17
Zn_phenanthroline_dione
Zn     0.000000     0.000000     0.000000
O      1.969465    -2.286008    -0.552146
C      1.630675    -1.156136    -0.264783
C      0.251056    -0.679964    -0.171860
C     -0.942860    -1.343495    -0.372354
C     -2.118299    -0.603703    -0.205932
C     -2.071747     0.760896     0.151512
C     -0.848904     1.410715     0.349083
C      0.296747     0.659413     0.178976
C      1.705286     1.030984     0.308114
O      2.120198     2.132581     0.605266
N      2.424851    -0.090971     0.031496
H     -0.963915    -2.393075    -0.646952
H     -3.083579    -1.085360    -0.353723
H     -3.001740     1.313657     0.274681
H     -0.798386     2.459192     0.624057
H      3.431153    -0.128726     0.044566
