15
ZnOAc2_salt
Zn     0.000000     0.000000     0.000000
C      1.980000     0.000000     0.000000
C      3.470003     0.082968     0.282350
O      3.940638    -0.891401     0.933707
O      4.047570     1.111079    -0.167774
H      1.762753    -0.900440    -0.582271
H      1.632218     0.869879    -0.565460
H      1.426114    -0.043857     0.942504
C     -1.980000     0.000000     0.000000
C     -0.489997     0.082968     0.282350
O     -0.019362    -0.891401     0.933707
O      0.087570     1.111079    -0.167774
H     -2.197247    -0.900440    -0.582271
H     -2.327782     0.869879    -0.565460
H     -2.533886    -0.043857     0.942504
